     Program PWSCF v.7.2 starts on 19Jul2024 at  0:50: 3

     Reading input from 1.Cu_vac_in_ZnS.scf.qn1.unrlxd.U8.in

     Current dimensions of program PWSCF are:
     Max number of different atomic species (ntypx) = 10
     Max number of k-points (npk) =  40000
     Max angular momentum in pseudopotentials (lmaxx) =  4
     file S.pbe-n-kjpaw_psl.1.0.0.UPF: wavefunction(s)  3S 3P renormalized
     file Zn.pbe-dnl-kjpaw_psl.1.0.0.UPF: wavefunction(s)  4S 3D renormalized
     file Cu.pbe-spn-kjpaw_psl.1.0.0.UPF: wavefunction(s)  4S 3P 3D renormalized

     K-points division:     npool     =      13
     R & G space division:  proc/nbgrp/npool/nimage =     112
     Subspace diagonalization in iterative solution of the eigenvalue problem:
     one sub-group per band group will be used

     Using Slab Decomposition

     bravais-lattice index     =            1
     lattice parameter (alat)  =      20.5686  a.u.
     unit-cell volume          =    8701.8437 (a.u.)^3
     number of atoms/cell      =           63
     number of atomic types    =            3
     number of electrons       =       578.00
     number of Kohn-Sham states=          347
     kinetic-energy cutoff     =     150.0000  Ry
     charge density cutoff     =     600.0000  Ry
     scf convergence threshold =      1.0E-08
     mixing beta               =       0.7000
     number of iterations used =            8  plain     mixing
     Exchange-correlation= SLA  PW   PBX  PBC
                           (   1   4   3   4   0   0   0)
     Hubbard projectors: ortho-atomic
     Hubbard parameters of DFT+U (Dudarev formulation) in eV:
     U(Zn-3d) =  7.0000
     U(Cu-3d) =  8.0000

     Internal variables: lda_plus_u = T, lda_plus_u_kind = 0

     celldm(1)=  20.568554  celldm(2)=   0.000000  celldm(3)=   0.000000
     celldm(4)=   0.000000  celldm(5)=   0.000000  celldm(6)=   0.000000

     crystal axes: (cart. coord. in units of alat)
               a(1) = (   1.000000   0.000000   0.000000 )
               a(2) = (   0.000000   1.000000   0.000000 )
               a(3) = (   0.000000   0.000000   1.000000 )

     reciprocal axes: (cart. coord. in units 2 pi/alat)
               b(1) = (  1.000000  0.000000  0.000000 )
               b(2) = (  0.000000  1.000000  0.000000 )
               b(3) = (  0.000000  0.000000  1.000000 )

     PseudoPot. # 1 for S  read from file:
     /arf/home/amuhaymin/pseudo/S.pbe-n-kjpaw_psl.1.0.0.UPF
     MD5 check sum: fb45dfebcf3e72a4e1bd4a866ec2e262
     Pseudo is Projector augmented-wave + core cor, Zval =  6.0
     Generated using &quot;atomic&quot; code by A. Dal Corso  v.6.3
     Shape of augmentation charge: PSQ
     Using radial grid of 1151 points,  6 beta functions with:
                l(1) =   0
                l(2) =   0
                l(3) =   1
                l(4) =   1
                l(5) =   2
                l(6) =   2
     Q(r) pseudized with 0 coefficients

     PseudoPot. # 2 for Zn read from file:
     /arf/home/amuhaymin/pseudo/Zn.pbe-dnl-kjpaw_psl.1.0.0.UPF
     MD5 check sum: c608214d9520ac179f507641260889e3
     Pseudo is Projector augmented-wave + core cor, Zval = 12.0
     Generated using &quot;atomic&quot; code by A. Dal Corso  v.6.2.2
     Shape of augmentation charge: PSQ
     Using radial grid of 1201 points,  6 beta functions with:
                l(1) =   0
                l(2) =   0
                l(3) =   1
                l(4) =   1
                l(5) =   2
                l(6) =   2
     Q(r) pseudized with 0 coefficients

     PseudoPot. # 3 for Cu read from file:
     /arf/home/amuhaymin/pseudo/Cu.pbe-spn-kjpaw_psl.1.0.0.UPF
     MD5 check sum: e7cbaad2f97193e5fe23251a619a52b0
     Pseudo is Projector augmented-wave + core cor, Zval = 19.0
     Generated using &quot;atomic&quot; code by A. Dal Corso  v.6.3
     Shape of augmentation charge: PSQ
     Using radial grid of 1199 points,  6 beta functions with:
                l(1) =   0
                l(2) =   0
                l(3) =   1
                l(4) =   1
                l(5) =   2
                l(6) =   2
     Q(r) pseudized with 0 coefficients

     atomic species   valence    mass     pseudopotential
        S              6.00    32.06500     S ( 1.00)
        Zn            12.00    65.38000     Zn( 1.00)
        Cu            19.00    63.54600     Cu( 1.00)

     Starting magnetic structure
     atomic species   magnetization
        S            0.000
        Zn           0.000
        Cu           0.000

      6 Sym. Ops. (no inversion) found

                                    s                        frac. trans.

      isym =  1     identity

 cryst.   s( 1) = (     1          0          0      )
                  (     0          1          0      )
                  (     0          0          1      )

 cart.    s( 1) = (  1.0000000  0.0000000  0.0000000 )
                  (  0.0000000  1.0000000  0.0000000 )
                  (  0.0000000  0.0000000  1.0000000 )

      isym =  2     120 deg rotation - cart. axis [-1,-1,-1]

[...]

      isym =  3     120 deg rotation - cart. axis [1,1,1]

[...]

      isym =  4     inv. 180 deg rotation - cart. axis [1,-1,0]

[...]

      isym =  6     inv. 180 deg rotation - cart. axis [0,1,-1]

 cryst.   s( 6) = (     1          0          0      )
                  (     0          0          1      )
                  (     0          1          0      )

 cart.    s( 6) = (  1.0000000  0.0000000  0.0000000 )
                  (  0.0000000  0.0000000  1.0000000 )
                  (  0.0000000  1.0000000  0.0000000 )

     point group C_3v (3m)
     there are  3 classes
     the character table:

       E     2C3   3s_v
A_1    1.00  1.00  1.00
A_2    1.00  1.00 -1.00
E      2.00 -1.00  0.00

     the symmetry operations in each class and the name of the first element:

     E        1
          identity
     2C3      2    3
          120 deg rotation - cart. axis [-1,-1,-1]
     3s_v     4    5    6
          inv. 180 deg rotation - cart. axis [1,-1,0]

   Cartesian axes

     site n.     atom                  positions (alat units)
         1           Zn  tau(   1) = (   0.0000000   0.0000000   0.0000000  )
         2           Zn  tau(   2) = (   0.0000000   0.2500000   0.2500000  )
         3           Zn  tau(   3) = (   0.2500000   0.0000000   0.2500000  )
         4           Zn  tau(   4) = (   0.2500000   0.2500000   0.0000000  )
         5           S   tau(   5) = (   0.1250000   0.3750000   0.3750000  )
         6           S   tau(   6) = (   0.1250000   0.1250000   0.1250000  )
         7           S   tau(   7) = (   0.3750000   0.3750000   0.1250000  )
         8           S   tau(   8) = (   0.3750000   0.1250000   0.3750000  )
         9           Zn  tau(   9) = (   0.0000000   0.0000000   0.5000000  )
        10           Zn  tau(  10) = (   0.0000000   0.2500000   0.7500000  )
        11           Zn  tau(  11) = (   0.2500000   0.0000000   0.7500000  )
        12           Zn  tau(  12) = (   0.2500000   0.2500000   0.5000000  )
        13           S   tau(  13) = (   0.1250000   0.3750000   0.8750000  )
        14           S   tau(  14) = (   0.1250000   0.1250000   0.6250000  )
        15           S   tau(  15) = (   0.3750000   0.3750000   0.6250000  )
        16           S   tau(  16) = (   0.3750000   0.1250000   0.8750000  )
        17           Zn  tau(  17) = (   0.0000000   0.5000000   0.0000000  )
        18           Zn  tau(  18) = (   0.0000000   0.7500000   0.2500000  )
        19           Zn  tau(  19) = (   0.2500000   0.5000000   0.2500000  )
        20           Zn  tau(  20) = (   0.2500000   0.7500000   0.0000000  )
        21           S   tau(  21) = (   0.1250000   0.8750000   0.3750000  )
        22           S   tau(  22) = (   0.1250000   0.6250000   0.1250000  )
        23           S   tau(  23) = (   0.3750000   0.8750000   0.1250000  )
        24           S   tau(  24) = (   0.3750000   0.6250000   0.3750000  )
        25           Zn  tau(  25) = (   0.0000000   0.5000000   0.5000000  )
        26           Zn  tau(  26) = (   0.0000000   0.7500000   0.7500000  )
        27           Zn  tau(  27) = (   0.2500000   0.5000000   0.7500000  )
        28           Zn  tau(  28) = (   0.2500000   0.7500000   0.5000000  )
        29           S   tau(  29) = (   0.1250000   0.8750000   0.8750000  )
        30           S   tau(  30) = (   0.1250000   0.6250000   0.6250000  )
        31           S   tau(  31) = (   0.3750000   0.8750000   0.6250000  )
        32           S   tau(  32) = (   0.3750000   0.6250000   0.8750000  )
        33           Zn  tau(  33) = (   0.5000000   0.0000000   0.0000000  )
        34           Zn  tau(  34) = (   0.5000000   0.2500000   0.2500000  )
        35           Zn  tau(  35) = (   0.7500000   0.0000000   0.2500000  )
        36           Zn  tau(  36) = (   0.7500000   0.2500000   0.0000000  )
        37           S   tau(  37) = (   0.6250000   0.3750000   0.3750000  )
        38           S   tau(  38) = (   0.6250000   0.1250000   0.1250000  )
        39           S   tau(  39) = (   0.8750000   0.3750000   0.1250000  )
        40           S   tau(  40) = (   0.8750000   0.1250000   0.3750000  )
        41           Zn  tau(  41) = (   0.5000000   0.0000000   0.5000000  )
        42           Zn  tau(  42) = (   0.5000000   0.2500000   0.7500000  )
        43           Zn  tau(  43) = (   0.7500000   0.0000000   0.7500000  )
        44           Zn  tau(  44) = (   0.7500000   0.2500000   0.5000000  )
        45           S   tau(  45) = (   0.6250000   0.3750000   0.8750000  )
        46           S   tau(  46) = (   0.6250000   0.1250000   0.6250000  )
        47           S   tau(  47) = (   0.8750000   0.3750000   0.6250000  )
        48           S   tau(  48) = (   0.8750000   0.1250000   0.8750000  )
        49           Zn  tau(  49) = (   0.5000000   0.5000000   0.0000000  )
        50           Zn  tau(  50) = (   0.5000000   0.7500000   0.2500000  )
        51           Zn  tau(  51) = (   0.7500000   0.5000000   0.2500000  )
        52           Zn  tau(  52) = (   0.7500000   0.7500000   0.0000000  )
        53           S   tau(  53) = (   0.6250000   0.8750000   0.3750000  )
        54           S   tau(  54) = (   0.6250000   0.6250000   0.1250000  )
        55           S   tau(  55) = (   0.8750000   0.8750000   0.1250000  )
        56           S   tau(  56) = (   0.8750000   0.6250000   0.3750000  )
        57           Cu  tau(  57) = (   0.5000000   0.5000000   0.5000000  )
        58           Zn  tau(  58) = (   0.5000000   0.7500000   0.7500000  )
        59           Zn  tau(  59) = (   0.7500000   0.5000000   0.7500000  )
        60           Zn  tau(  60) = (   0.7500000   0.7500000   0.5000000  )
        61           S   tau(  61) = (   0.6250000   0.8750000   0.8750000  )
        62           S   tau(  62) = (   0.8750000   0.8750000   0.6250000  )
        63           S   tau(  63) = (   0.8750000   0.6250000   0.8750000  )

   Crystallographic axes

     site n.     atom                  positions (cryst. coord.)
         1           Zn  tau(   1) = (  0.0000000  0.0000000  0.0000000  )
[...]
     atom  30 (R=0.089)  charge=  4.0015  magn=  0.0000
     atom  31 (R=0.089)  charge=  3.9982  magn=  0.0000
     atom  32 (R=0.089)  charge=  3.9982  magn=  0.0000
     atom  33 (R=0.089)  charge= 10.1800  magn=  0.0000
     atom  34 (R=0.089)  charge= 10.1777  magn= -0.0000
     atom  35 (R=0.089)  charge= 10.1785  magn=  0.0000
     atom  36 (R=0.089)  charge= 10.1785  magn=  0.0000
     atom  37 (R=0.089)  charge=  3.9828  magn=  0.0000
     atom  38 (R=0.089)  charge=  4.0023  magn= -0.0000
     atom  39 (R=0.089)  charge=  4.0025  magn= -0.0000
     atom  40 (R=0.089)  charge=  4.0025  magn= -0.0000
     atom  41 (R=0.089)  charge= 10.1765  magn= -0.0000
     atom  42 (R=0.089)  charge= 10.1774  magn= -0.0000
     atom  43 (R=0.089)  charge= 10.1771  magn= -0.0000
     atom  44 (R=0.089)  charge= 10.1774  magn= -0.0000
     atom  45 (R=0.089)  charge=  3.9982  magn=  0.0000
     atom  46 (R=0.089)  charge=  4.0015  magn=  0.0000
     atom  47 (R=0.089)  charge=  3.9982  magn=  0.0000
     atom  48 (R=0.089)  charge=  4.0022  magn= -0.0000
     atom  49 (R=0.089)  charge= 10.1765  magn= -0.0000
     atom  50 (R=0.089)  charge= 10.1774  magn= -0.0000
     atom  51 (R=0.089)  charge= 10.1774  magn= -0.0000
     atom  52 (R=0.089)  charge= 10.1771  magn= -0.0000
     atom  53 (R=0.089)  charge=  3.9982  magn=  0.0000
     atom  54 (R=0.089)  charge=  4.0015  magn=  0.0000
     atom  55 (R=0.089)  charge=  4.0022  magn= -0.0000
     atom  56 (R=0.089)  charge=  3.9982  magn=  0.0000
     atom  57 (R=0.089)  charge= 17.4265  magn=  0.0000
     atom  58 (R=0.089)  charge= 10.1413  magn= -0.0000
     atom  59 (R=0.089)  charge= 10.1413  magn= -0.0000
     atom  60 (R=0.089)  charge= 10.1413  magn= -0.0000
     atom  61 (R=0.089)  charge=  3.9992  magn= -0.0000
     atom  62 (R=0.089)  charge=  3.9992  magn= -0.0000
     atom  63 (R=0.089)  charge=  3.9992  magn= -0.0000

     End of self-consistent calculation

 ------ SPIN UP ------------

          k = 0.0000 0.0000 0.0000 (269825 PWs)   bands (ev):

  -103.3585 -60.8061 -60.7782 -60.7782  -7.6365  -7.2187  -7.2187  -7.2124
    -7.2124  -7.2061  -7.1727  -7.0200  -7.0200  -7.0194  -7.0065  -6.9842
    -6.9816  -6.9816  -6.9796  -6.9796  -6.9780  -6.9780  -6.9779  -6.8778
    -6.8778  -6.8592  -6.7984  -6.7962  -6.7962  -6.7609  -6.7579  -6.7579
    -6.4615  -6.3366  -6.3366  -3.8771  -3.8759  -3.8759  -3.8369  -3.8361
    -3.8361  -3.8344  -3.8344  -3.8185  -3.8185  -3.8126  -3.8106  -3.8106
    -3.8086  -3.7974  -3.7972  -3.7972  -3.7937  -3.7937  -3.7902  -3.7884
    -3.7884  -3.7810  -3.7792  -3.7792  -3.7769  -3.7724  -3.7700  -3.7700
    -3.7648  -3.7645  -3.7642  -3.7642  -3.7497  -3.7497  -3.7497  -3.7380
    -3.7360  -3.7360  -3.7289  -3.7289  -3.7261  -3.7261  -3.7236  -3.7195
    -3.7195  -3.7149  -3.7112  -3.7112  -3.7035  -3.7014  -3.7014  -3.6967
    -3.6913  -3.6883  -3.6883  -3.6830  -3.6830  -3.6816  -3.6781  -3.6727
    -3.6727  -3.6565  -3.6553  -3.6508  -3.6504  -3.6504  -3.6470  -3.6470
    -3.6399  -3.6399  -3.6380  -3.6339  -3.6339  -3.6306  -3.6306  -3.6303
    -3.6233  -3.6215  -3.6215  -3.6211  -3.6144  -3.6144  -3.6141  -3.6141
    -3.6131  -3.6131  -3.6114  -3.6063  -3.5911  -3.5861  -3.5861  -3.5824
    -3.5824  -3.5705  -3.5687  -3.5686  -3.5686  -3.5517  -3.5517  -3.5463
    -3.5359  -3.5359  -3.5342  -3.5334  -3.5239  -3.5239  -3.5083  -3.5083
    -3.5056  -3.4936  -3.4877  -3.4877  -3.4863  -3.4863  -3.4834  -3.4834
    -3.4821  -3.4682  -3.4657  -3.4657  -3.4615  -3.4457  -3.4457  -3.4225
    -3.4153  -3.4153  -3.4076  -3.4003  -3.3981  -3.3981  -3.2882  -3.2882
    -3.2446  -3.2420  -3.2420  -3.2266  -3.2208  -3.2208  -3.2139  -3.2032
    -3.1984  -3.1984  -3.1440  -3.1440  -3.0957  -3.0412  -3.0192  -3.0192
    -2.9690  -2.9073  -2.9073  -2.8766  -2.8766  -2.8710   0.2144   0.2332
     0.2601   0.2601   0.5878   0.5957   0.5957   0.8057   0.8057   0.8201
     0.8824   0.8824   0.8981   1.0713   1.1243   1.1243   1.2122   1.2122
     1.2540   1.2558   1.2649   1.2649   1.4705   1.4705   1.7914   1.8807
     1.8807   2.0272   2.0272   2.2245   2.4501   2.4844   2.4969   2.4969
     2.5182   2.5198   2.5198   2.6074   2.6074   2.6159   2.6159   2.6659
     2.6726   2.6760   2.6760   2.6854   2.7009   2.7009   2.7762   2.7980
     2.7980   2.8655   2.9481   2.9530   2.9530   2.9585   2.9585   3.1253
     3.1253   3.1622   3.1673   3.2311   3.2311   3.5150   3.5150   3.6701
     3.9960   4.0015   4.0015   4.0253   4.0369   4.0369   4.0910   4.0910
     4.1041   4.1703   4.2276   4.2276   4.2986   4.3014   4.3014   4.3016
     4.3035   4.3035   4.3124   4.3125   4.3125   4.3153   4.3287   4.3287
     4.5087   4.5601   4.5601   4.8646   4.8646   5.1133   5.3142   5.3142
     6.5441   7.7801   8.6054   8.6054   8.6918   8.7506   8.8104   8.8104
     8.9311   8.9311   9.0943   9.4757   9.4783   9.4783   9.5465   9.8311
     9.8311   9.9141   9.9376   9.9376   9.9605   9.9816   9.9816   9.9852
     9.9952   9.9952  10.1536  10.1536  10.1553  10.1770  10.1770  10.2087
    10.2087  10.2340  10.3435  10.6351  10.6351  10.7028  11.0157  11.1111
    11.1111  11.1465  11.1465  11.2860  11.3175  11.3175  11.3312  11.6495
    11.6495  11.6837  11.8161  11.8444  11.8444  11.8456  11.9897  11.9897
    12.0001  12.0052  12.0052

     occupation numbers
     1.0000   1.0000   1.0000   1.0000   1.0000   1.0000   1.0000   1.0000
     1.0000   1.0000   1.0000   1.0000   1.0000   1.0000   1.0000   1.0000
     1.0000   1.0000   1.0000   1.0000   1.0000   1.0000   1.0000   1.0000
     1.0000   1.0000   1.0000   1.0000   1.0000   1.0000   1.0000   1.0000
     1.0000   1.0000   1.0000   1.0000   1.0000   1.0000   1.0000   1.0000
     1.0000   1.0000   1.0000   1.0000   1.0000   1.0000   1.0000   1.0000
     1.0000   1.0000   1.0000   1.0000   1.0000   1.0000   1.0000   1.0000
     1.0000   1.0000   1.0000   1.0000   1.0000   1.0000   1.0000   1.0000
     1.0000   1.0000   1.0000   1.0000   1.0000   1.0000   1.0000   1.0000
     1.0000   1.0000   1.0000   1.0000   1.0000   1.0000   1.0000   1.0000
     1.0000   1.0000   1.0000   1.0000   1.0000   1.0000   1.0000   1.0000
     1.0000   1.0000   1.0000   1.0000   1.0000   1.0000   1.0000   1.0000
     1.0000   1.0000   1.0000   1.0000   1.0000   1.0000   1.0000   1.0000
     1.0000   1.0000   1.0000   1.0000   1.0000   1.0000   1.0000   1.0000
     1.0000   1.0000   1.0000   1.0000   1.0000   1.0000   1.0000   1.0000
     1.0000   1.0000   1.0000   1.0000   1.0000   1.0000   1.0000   1.0000
     1.0000   1.0000   1.0000   1.0000   1.0000   1.0000   1.0000   1.0000
     1.0000   1.0000   1.0000   1.0000   1.0000   1.0000   1.0000   1.0000
     1.0000   1.0000   1.0000   1.0000   1.0000   1.0000   1.0000   1.0000
     1.0000   1.0000   1.0000   1.0000   1.0000   1.0000   1.0000   1.0000
     1.0000   1.0000   1.0000   1.0000   1.0000   1.0000   1.0000   1.0000
     1.0000   1.0000   1.0000   1.0000   1.0000   1.0000   1.0000   1.0000
     1.0000   1.0000   1.0000   1.0000   1.0000   1.0000   1.0000   1.0000
     1.0000   1.0000   1.0000   1.0000   1.0000   1.0000   1.0000   1.0000
     1.0000   1.0000   1.0000   1.0000   1.0000   1.0000   1.0000   1.0000
     1.0000   1.0000   1.0000   1.0000   1.0000   1.0000   1.0000   1.0000
     1.0000   1.0000   1.0000   1.0000   1.0000   1.0000   1.0000   1.0000
     1.0000   1.0000   1.0000   1.0000   1.0000   1.0000   1.0000   1.0000
     1.0000   1.0000   1.0000   1.0000   1.0000   1.0000   1.0000   1.0000
     1.0000   1.0000   1.0000   1.0000   1.0000   1.0000   1.0000   1.0000
     1.0000   1.0000   1.0000   1.0000   1.0000   1.0000   1.0000   1.0000
     1.0000   1.0000   1.0000   1.0000   1.0000   1.0000   1.0000   1.0000
     1.0000   1.0000   1.0000   1.0000   1.0000   1.0000   1.0000   1.0000
     1.0000   1.0000   1.0000   1.0000   1.0000   1.0000   1.0000   1.0000
     1.0000   1.0000   1.0000   1.0000   1.0000   1.0000   1.0000   1.0000
     1.0000   1.0000   1.0000   1.0000   1.0000   1.0000   1.0000   1.0000
     1.0000   0.0000   0.0000   0.0000   0.0000   0.0000   0.0000   0.0000
     0.0000   0.0000   0.0000   0.0000   0.0000   0.0000   0.0000   0.0000
     0.0000   0.0000   0.0000   0.0000   0.0000   0.0000   0.0000   0.0000
     0.0000   0.0000   0.0000   0.0000   0.0000   0.0000   0.0000   0.0000
     0.0000   0.0000   0.0000   0.0000   0.0000   0.0000   0.0000   0.0000
     0.0000   0.0000   0.0000   0.0000   0.0000   0.0000   0.0000   0.0000
     0.0000   0.0000   0.0000   0.0000   0.0000   0.0000   0.0000   0.0000
     0.0000   0.0000   0.0000

[...]

          k =-0.5000-0.5000-0.5000 (269968 PWs)   bands (ev):

[...]

 ------ SPIN DOWN ----------

[...]

          k =-0.2500 0.0000 0.2500 (269929 PWs)   bands (ev):

[...]

          k = 0.2500-0.2500-0.5000 (269988 PWs)   bands (ev):

  -103.3585 -60.8061 -60.7782 -60.7782  -7.4944  -7.4265  -7.2941  -7.2935
    -7.2349  -7.2050  -7.1468  -7.0439  -7.0217  -7.0195  -6.9822  -6.9774
    -6.9682  -6.9614  -6.9230  -6.9029  -6.9015  -6.8949  -6.8839  -6.8697
    -6.8624  -6.8486  -6.8364  -6.8312  -6.8177  -6.8084  -6.8054  -6.8039
    -6.4515  -6.3442  -6.3415  -3.8717  -3.8708  -3.8679  -3.8364  -3.8358
    -3.8328  -3.8314  -3.8304  -3.8275  -3.8228  -3.8188  -3.8162  -3.8148
    -3.8120  -3.8114  -3.8086  -3.8014  -3.8007  -3.7932  -3.7875  -3.7859
    -3.7809  -3.7795  -3.7771  -3.7729  -3.7710  -3.7682  -3.7670  -3.7644
    -3.7606  -3.7579  -3.7567  -3.7519  -3.7492  -3.7481  -3.7453  -3.7411
    -3.7408  -3.7398  -3.7377  -3.7363  -3.7294  -3.7221  -3.7193  -3.7141
    -3.7102  -3.7099  -3.7076  -3.7056  -3.7034  -3.7013  -3.6984  -3.6970
    -3.6960  -3.6910  -3.6886  -3.6860  -3.6847  -3.6833  -3.6792  -3.6746
    -3.6722  -3.6659  -3.6631  -3.6552  -3.6545  -3.6492  -3.6451  -3.6440
    -3.6409  -3.6398  -3.6393  -3.6374  -3.6327  -3.6312  -3.6294  -3.6270
    -3.6228  -3.6196  -3.6175  -3.6158  -3.6148  -3.6123  -3.6092  -3.6086
    -3.6067  -3.6045  -3.6020  -3.5998  -3.5946  -3.5906  -3.5904  -3.5888
    -3.5837  -3.5805  -3.5749  -3.5743  -3.5694  -3.5682  -3.5616  -3.5541
    -3.5422  -3.5391  -3.5343  -3.5180  -3.5160  -3.5139  -3.5126  -3.5085
    -3.5022  -3.4977  -3.4934  -3.4904  -3.4851  -3.4814  -3.4786  -3.4761
    -3.4746  -3.4709  -3.4676  -3.4630  -3.4589  -3.4515  -3.4410  -3.4254
    -3.4194  -3.4151  -3.4128  -3.3973  -3.3964  -3.3945  -3.3335  -3.3152
    -3.3069  -3.2891  -3.2427  -3.2240  -3.2015  -3.1836  -3.1637  -3.1372
    -3.1050  -3.0975  -3.0699  -3.0638  -3.0533  -3.0395  -3.0220  -3.0104
    -3.0005  -2.9890  -2.9802  -2.9708  -2.9595  -2.9477   0.4628   0.5284
     0.5950   0.6201   0.6688   0.6776   0.6969   0.7222   0.7241   0.7389
     0.7553   0.7717   0.7950   0.8253   0.8659   0.8975   0.9444   1.0320
     1.1216   1.1905   1.2271   1.2595   1.3096   1.4062   1.5598   1.7836
     1.8345   2.0108   2.0535   2.0835   2.1613   2.2611   2.3575   2.3627
     2.3849   2.4558   2.5036   2.5148   2.5782   2.6412   2.6669   2.6787
     2.7159   2.7766   2.8335   2.8905   2.9844   3.1098   3.1300   3.1944
     3.2521   3.2944   3.3036   3.3051   3.3202   3.3380   3.3838   3.4111
     3.4277   3.4386   3.4503   3.4785   3.4859   3.5021   3.5186   3.5591
     3.5857   3.5965   3.6378   3.6658   3.7198   3.7356   3.8075   3.8166
     3.8787   3.9206   3.9476   3.9668   4.0177   4.0339   4.1291   4.1620
     4.1857   4.1971   4.2192   4.2700   4.3488   4.4401   4.5322   4.6040
     4.6200   4.6662   4.7218   4.7960   4.8056   4.8330   5.1229   5.1982
     6.9257   8.3463   8.4441   8.8853   8.9430   9.0408   9.0913   9.2394
     9.2977   9.3268   9.3937   9.4860   9.5091   9.5379   9.5605   9.5786
     9.6381   9.6952   9.7125   9.7479   9.7866   9.8232   9.8441   9.8969
     9.9394   9.9630  10.0279  10.0484  10.0653  10.1368  10.1788  10.2769
    10.2937  10.3929  10.4256  10.5820  10.6612  10.7063  10.7308  10.7895
    10.8189  10.9126  11.0137  11.1042  11.1695  11.2189  11.3197  11.3834
    11.4179  11.4398  11.4527  11.4954  11.5281  11.5530  11.5809  11.5983
    11.6176  11.6212  11.6562

     occupation numbers
     1.0000   1.0000   1.0000   1.0000   1.0000   1.0000   1.0000   1.0000
     1.0000   1.0000   1.0000   1.0000   1.0000   1.0000   1.0000   1.0000
     1.0000   1.0000   1.0000   1.0000   1.0000   1.0000   1.0000   1.0000
     1.0000   1.0000   1.0000   1.0000   1.0000   1.0000   1.0000   1.0000
     1.0000   1.0000   1.0000   1.0000   1.0000   1.0000   1.0000   1.0000
     1.0000   1.0000   1.0000   1.0000   1.0000   1.0000   1.0000   1.0000
     1.0000   1.0000   1.0000   1.0000   1.0000   1.0000   1.0000   1.0000
     1.0000   1.0000   1.0000   1.0000   1.0000   1.0000   1.0000   1.0000
     1.0000   1.0000   1.0000   1.0000   1.0000   1.0000   1.0000   1.0000
     1.0000   1.0000   1.0000   1.0000   1.0000   1.0000   1.0000   1.0000
     1.0000   1.0000   1.0000   1.0000   1.0000   1.0000   1.0000   1.0000
     1.0000   1.0000   1.0000   1.0000   1.0000   1.0000   1.0000   1.0000
     1.0000   1.0000   1.0000   1.0000   1.0000   1.0000   1.0000   1.0000
     1.0000   1.0000   1.0000   1.0000   1.0000   1.0000   1.0000   1.0000
     1.0000   1.0000   1.0000   1.0000   1.0000   1.0000   1.0000   1.0000
     1.0000   1.0000   1.0000   1.0000   1.0000   1.0000   1.0000   1.0000
     1.0000   1.0000   1.0000   1.0000   1.0000   1.0000   1.0000   1.0000
     1.0000   1.0000   1.0000   1.0000   1.0000   1.0000   1.0000   1.0000
     1.0000   1.0000   1.0000   1.0000   1.0000   1.0000   1.0000   1.0000
     1.0000   1.0000   1.0000   1.0000   1.0000   1.0000   1.0000   1.0000
     1.0000   1.0000   1.0000   1.0000   1.0000   1.0000   1.0000   1.0000
     1.0000   1.0000   1.0000   1.0000   1.0000   1.0000   1.0000   1.0000
     1.0000   1.0000   1.0000   1.0000   1.0000   1.0000   1.0000   1.0000
     1.0000   1.0000   1.0000   1.0000   1.0000   1.0000   1.0000   1.0000
     1.0000   1.0000   1.0000   1.0000   1.0000   1.0000   1.0000   1.0000
     1.0000   1.0000   1.0000   1.0000   1.0000   1.0000   1.0000   1.0000
     1.0000   1.0000   1.0000   1.0000   1.0000   1.0000   1.0000   1.0000
     1.0000   1.0000   1.0000   1.0000   1.0000   1.0000   1.0000   1.0000
     1.0000   1.0000   1.0000   1.0000   1.0000   1.0000   1.0000   1.0000
     1.0000   1.0000   1.0000   1.0000   1.0000   1.0000   1.0000   1.0000
     1.0000   1.0000   1.0000   1.0000   1.0000   1.0000   1.0000   1.0000
     1.0000   1.0000   1.0000   1.0000   1.0000   1.0000   1.0000   1.0000
     1.0000   1.0000   1.0000   1.0000   1.0000   1.0000   1.0000   1.0000
     1.0000   1.0000   1.0000   1.0000   1.0000   1.0000   1.0000   1.0000
     1.0000   1.0000   1.0000   1.0000   1.0000   1.0000   1.0000   1.0000
     1.0000   1.0000   1.0000   1.0000   1.0000   1.0000   1.0000   1.0000
     1.0000   0.0000   0.0000   0.0000   0.0000   0.0000   0.0000   0.0000
     0.0000   0.0000   0.0000   0.0000   0.0000   0.0000   0.0000   0.0000
     0.0000   0.0000   0.0000   0.0000   0.0000   0.0000   0.0000   0.0000
     0.0000   0.0000   0.0000   0.0000   0.0000   0.0000   0.0000   0.0000
     0.0000   0.0000   0.0000   0.0000   0.0000   0.0000   0.0000   0.0000
     0.0000   0.0000   0.0000   0.0000   0.0000   0.0000   0.0000   0.0000
     0.0000   0.0000   0.0000   0.0000   0.0000   0.0000   0.0000   0.0000
     0.0000   0.0000   0.0000

     the Fermi energy is     7.6243 ev

!    total energy              =  -10100.05858640 Ry
     total all-electron energy =   -139418.587635 Ry
     estimated scf accuracy    <          7.4E-09 Ry
     smearing contrib. (-TS)   =      -0.00000000 Ry
     internal energy E=F+TS    =  -10100.05858640 Ry

     The total energy is F=E-TS. E is the sum of the following terms:
     one-electron contribution =   -3087.92696265 Ry
     hartree contribution      =    2121.67486361 Ry
     xc contribution           =   -1662.48194637 Ry
     ewald contribution        =   -2984.70201120 Ry
     Hubbard energy            =       0.27726084 Ry
     one-center paw contrib.   =   -4486.89979062 Ry
      -> PAW hartree energy AE =     123.90675438 Ry
      -> PAW hartree energy PS =    -123.25995081 Ry
      -> PAW xc energy AE      =    -143.27798482 Ry
      -> PAW xc energy PS      =      47.21449534 Ry
      -> total E_H with PAW    =    2122.32166718 Ry
      -> total E_XC with PAW   =   -1758.54543586 Ry

     total magnetization       =    -0.00 Bohr mag/cell
     absolute magnetization    =     0.00 Bohr mag/cell

     convergence has been achieved in  12 iterations

     Writing all to output data dir ./out/Cu_vac_qn1_U8_unrlxd.save/

     General routines

     Parallel routines

     Hubbard U routines

     PAW routines

   This run was terminated on:   0:55:21  19Jul2024

   JOB DONE.