     Program PWSCF v.7.2 starts on 29Jun2024 at  1: 8:43

     Reading input from 2.Cu_in_ZnS.scf.q0.in

     Current dimensions of program PWSCF are:
     Max number of different atomic species (ntypx) = 10
     Max number of k-points (npk) =  40000
     Max angular momentum in pseudopotentials (lmaxx) =  4
     file S.pbe-n-kjpaw_psl.1.0.0.UPF: wavefunction(s)  3S 3P renormalized
     file Zn.pbe-dnl-kjpaw_psl.1.0.0.UPF: wavefunction(s)  4S 3D renormalized
     file Cu.pbe-spn-kjpaw_psl.1.0.0.UPF: wavefunction(s)  4S 3P 3D renormalized

     K-points division:     npool     =       5
     R & G space division:  proc/nbgrp/npool/nimage =     112
     Subspace diagonalization in iterative solution of the eigenvalue problem:
     one sub-group per band group will be used

     Using Slab Decomposition

     bravais-lattice index     =            1
     lattice parameter (alat)  =      20.5686  a.u.
     unit-cell volume          =    8701.8437 (a.u.)^3
     number of atoms/cell      =           64
     number of atomic types    =            3
     number of electrons       =       583.00
     number of Kohn-Sham states=          350
     kinetic-energy cutoff     =     150.0000  Ry
     charge density cutoff     =     600.0000  Ry
     scf convergence threshold =      1.0E-08
     mixing beta               =       0.7000
     number of iterations used =            8  plain     mixing
     Exchange-correlation= SLA  PW   PBX  PBC
                           (   1   4   3   4   0   0   0)

     celldm(1)=  20.568554  celldm(2)=   0.000000  celldm(3)=   0.000000
     celldm(4)=   0.000000  celldm(5)=   0.000000  celldm(6)=   0.000000

     crystal axes: (cart. coord. in units of alat)
               a(1) = (   1.000000   0.000000   0.000000 )
               a(2) = (   0.000000   1.000000   0.000000 )
               a(3) = (   0.000000   0.000000   1.000000 )

     reciprocal axes: (cart. coord. in units 2 pi/alat)
               b(1) = (  1.000000  0.000000  0.000000 )
               b(2) = (  0.000000  1.000000  0.000000 )
               b(3) = (  0.000000  0.000000  1.000000 )

     PseudoPot. # 1 for S  read from file:
     /arf/home/amuhaymin/pseudo/S.pbe-n-kjpaw_psl.1.0.0.UPF
     MD5 check sum: fb45dfebcf3e72a4e1bd4a866ec2e262
     Pseudo is Projector augmented-wave + core cor, Zval =  6.0
     Generated using &quot;atomic&quot; code by A. Dal Corso  v.6.3
     Shape of augmentation charge: PSQ
     Using radial grid of 1151 points,  6 beta functions with:
                l(1) =   0
                l(2) =   0
                l(3) =   1
                l(4) =   1
                l(5) =   2
                l(6) =   2
     Q(r) pseudized with 0 coefficients

     PseudoPot. # 2 for Zn read from file:
     /arf/home/amuhaymin/pseudo/Zn.pbe-dnl-kjpaw_psl.1.0.0.UPF
     MD5 check sum: c608214d9520ac179f507641260889e3
     Pseudo is Projector augmented-wave + core cor, Zval = 12.0
     Generated using &quot;atomic&quot; code by A. Dal Corso  v.6.2.2
     Shape of augmentation charge: PSQ
     Using radial grid of 1201 points,  6 beta functions with:
                l(1) =   0
                l(2) =   0
                l(3) =   1
                l(4) =   1
                l(5) =   2
                l(6) =   2
     Q(r) pseudized with 0 coefficients

     PseudoPot. # 3 for Cu read from file:
     /arf/home/amuhaymin/pseudo/Cu.pbe-spn-kjpaw_psl.1.0.0.UPF
     MD5 check sum: e7cbaad2f97193e5fe23251a619a52b0
     Pseudo is Projector augmented-wave + core cor, Zval = 19.0
     Generated using &quot;atomic&quot; code by A. Dal Corso  v.6.3
     Shape of augmentation charge: PSQ
     Using radial grid of 1199 points,  6 beta functions with:
                l(1) =   0
                l(2) =   0
                l(3) =   1
                l(4) =   1
                l(5) =   2
                l(6) =   2
     Q(r) pseudized with 0 coefficients

     atomic species   valence    mass     pseudopotential
        S              6.00    32.06500     S ( 1.00)
        Zn            12.00    65.38000     Zn( 1.00)
        Cu            19.00    63.54600     Cu( 1.00)

     Starting magnetic structure
     atomic species   magnetization
        S            0.000
        Zn           0.000
        Cu           0.053

     24 Sym. Ops. (no inversion) found

                                    s                        frac. trans.

      isym =  1     identity

 cryst.   s( 1) = (     1          0          0      )
                  (     0          1          0      )
                  (     0          0          1      )

 cart.    s( 1) = (  1.0000000  0.0000000  0.0000000 )
                  (  0.0000000  1.0000000  0.0000000 )
                  (  0.0000000  0.0000000  1.0000000 )

      isym =  2     180 deg rotation - cart. axis [0,0,1]

[...]

 cryst.   s( 9) = (     0          1          0      )
                  (     0          0          1      )
                  (     1          0          0      )

 cart.    s( 9) = (  0.0000000  0.0000000  1.0000000 )
                  (  1.0000000  0.0000000  0.0000000 )
                  (  0.0000000  1.0000000  0.0000000 )

[...]

 cryst.   s(10) = (     0         -1          0      )
                  (     0          0         -1      )
                  (     1          0          0      )

 cart.    s(10) = (  0.0000000  0.0000000  1.0000000 )
                  ( -1.0000000  0.0000000  0.0000000 )
                  (  0.0000000 -1.0000000  0.0000000 )

[...]

      isym = 12     120 deg rotation - cart. axis [-1,-1,1]

[...]

      isym = 13     inv. 180 deg rotation - cart. axis [1,1,0]

[...]

      isym = 24     inv.  90 deg rotation - cart. axis [1,0,0]

 cryst.   s(24) = (    -1          0          0      )
                  (     0          0         -1      )
                  (     0          1          0      )

 cart.    s(24) = ( -1.0000000  0.0000000  0.0000000 )
                  (  0.0000000  0.0000000  1.0000000 )
                  (  0.0000000 -1.0000000  0.0000000 )

     point group T_d (-43m)
     there are  5 classes
     the character table:

       E     8C3   3C2   6S4   6s_d
A_1    1.00  1.00  1.00  1.00  1.00
A_2    1.00  1.00  1.00 -1.00 -1.00
E      2.00 -1.00  2.00  0.00  0.00
T_1    3.00  0.00 -1.00  1.00 -1.00
T_2    3.00  0.00 -1.00 -1.00  1.00

     the symmetry operations in each class and the name of the first element:

     E        1
          identity
     8C3      5    7    8    6   12    9   10   11
          120 deg rotation - cart. axis [-1,-1,-1]
     3C2      2    3    4
          180 deg rotation - cart. axis [0,0,1]
     6S4     15   16   20   19   23   24
          inv.  90 deg rotation - cart. axis [0,0,-1]
     6s_d    13   14   17   18   21   22
          inv. 180 deg rotation - cart. axis [1,1,0]

   Cartesian axes

     site n.     atom                  positions (alat units)
         1           Zn  tau(   1) = (   0.0000000   0.0000000   0.0000000  )
         2           Zn  tau(   2) = (   0.0001095   0.2501791   0.2501791  )
         3           Zn  tau(   3) = (   0.2501791   0.0001095   0.2501791  )
         4           Zn  tau(   4) = (   0.2501791   0.2501791   0.0001095  )
         5           S   tau(   5) = (   0.1253015   0.3750814   0.3750814  )
         6           S   tau(   6) = (   0.1249996   0.1249996   0.1249996  )
         7           S   tau(   7) = (   0.3750814   0.3750814   0.1253015  )
         8           S   tau(   8) = (   0.3750814   0.1253015   0.3750814  )
         9           Zn  tau(   9) = (   0.0000000   0.0000000   0.5000000  )
        10           Zn  tau(  10) = (  -0.0001095   0.2501791   0.7498209  )
        11           Zn  tau(  11) = (   0.2501791  -0.0001095   0.7498209  )
        12           Zn  tau(  12) = (   0.2513350   0.2513350   0.5009048  )
        13           S   tau(  13) = (   0.1251847   0.3750623   0.8748153  )
        14           S   tau(  14) = (   0.1251847   0.1251847   0.6249377  )
        15           S   tau(  15) = (   0.3769191   0.3769191   0.6230809  )
        16           S   tau(  16) = (   0.3750623   0.1251847   0.8748153  )
        17           Zn  tau(  17) = (   0.0000000   0.5000000   0.0000000  )
        18           Zn  tau(  18) = (  -0.0001095   0.7498209   0.2501791  )
        19           Zn  tau(  19) = (   0.2513350   0.5009048   0.2513350  )
        20           Zn  tau(  20) = (   0.2501791   0.7498209  -0.0001095  )
        21           S   tau(  21) = (   0.1251847   0.8748153   0.3750623  )
        22           S   tau(  22) = (   0.1251847   0.6249377   0.1251847  )
        23           S   tau(  23) = (   0.3750623   0.8748153   0.1251847  )
        24           S   tau(  24) = (   0.3769191   0.6230809   0.3769191  )
        25           Zn  tau(  25) = (   0.0000000   0.5000000   0.5000000  )
        26           Zn  tau(  26) = (   0.0001095   0.7498209   0.7498209  )
        27           Zn  tau(  27) = (   0.2513350   0.4990952   0.7486650  )
        28           Zn  tau(  28) = (   0.2513350   0.7486650   0.4990952  )
        29           S   tau(  29) = (   0.1249996   0.8750004   0.8750004  )
        30           S   tau(  30) = (   0.1253015   0.6249186   0.6249186  )
        31           S   tau(  31) = (   0.3750814   0.8746985   0.6249186  )
        32           S   tau(  32) = (   0.3750814   0.6249186   0.8746985  )
        33           Zn  tau(  33) = (   0.5000000   0.0000000   0.0000000  )
        34           Zn  tau(  34) = (   0.5009048   0.2513350   0.2513350  )
        35           Zn  tau(  35) = (   0.7498209  -0.0001095   0.2501791  )
        36           Zn  tau(  36) = (   0.7498209   0.2501791  -0.0001095  )
        37           S   tau(  37) = (   0.6230809   0.3769191   0.3769191  )
        38           S   tau(  38) = (   0.6249377   0.1251847   0.1251847  )
        39           S   tau(  39) = (   0.8748153   0.3750623   0.1251847  )
        40           S   tau(  40) = (   0.8748153   0.1251847   0.3750623  )
        41           Zn  tau(  41) = (   0.5000000   0.0000000   0.5000000  )
        42           Zn  tau(  42) = (   0.4990952   0.2513350   0.7486650  )
        43           Zn  tau(  43) = (   0.7498209   0.0001095   0.7498209  )
        44           Zn  tau(  44) = (   0.7486650   0.2513350   0.4990952  )
        45           S   tau(  45) = (   0.6249186   0.3750814   0.8746985  )
        46           S   tau(  46) = (   0.6249186   0.1253015   0.6249186  )
        47           S   tau(  47) = (   0.8746985   0.3750814   0.6249186  )
        48           S   tau(  48) = (   0.8750004   0.1249996   0.8750004  )
        49           Zn  tau(  49) = (   0.5000000   0.5000000   0.0000000  )
        50           Zn  tau(  50) = (   0.4990952   0.7486650   0.2513350  )
        51           Zn  tau(  51) = (   0.7486650   0.4990952   0.2513350  )
        52           Zn  tau(  52) = (   0.7498209   0.7498209   0.0001095  )
        53           S   tau(  53) = (   0.6249186   0.8746985   0.3750814  )
        54           S   tau(  54) = (   0.6249186   0.6249186   0.1253015  )
        55           S   tau(  55) = (   0.8750004   0.8750004   0.1249996  )
[...]
     atom  31 (R=0.088)  charge=  3.8849  magn=  0.0049
     atom  32 (R=0.088)  charge=  3.8849  magn=  0.0049
     atom  33 (R=0.089)  charge= 10.1395  magn=  0.0020
     atom  34 (R=0.089)  charge= 10.1399  magn=  0.0034
     atom  35 (R=0.089)  charge= 10.1402  magn=  0.0011
     atom  36 (R=0.089)  charge= 10.1402  magn=  0.0011
     atom  37 (R=0.088)  charge=  3.8789  magn=  0.0545
     atom  38 (R=0.088)  charge=  3.8835  magn=  0.0100
     atom  39 (R=0.088)  charge=  3.8835  magn=  0.0100
     atom  40 (R=0.088)  charge=  3.8835  magn=  0.0100
     atom  41 (R=0.089)  charge= 10.1407  magn=  0.0006
     atom  42 (R=0.089)  charge= 10.1399  magn=  0.0034
     atom  43 (R=0.089)  charge= 10.1402  magn=  0.0011
     atom  44 (R=0.089)  charge= 10.1399  magn=  0.0034
     atom  45 (R=0.088)  charge=  3.8849  magn=  0.0049
     atom  46 (R=0.088)  charge=  3.8849  magn=  0.0049
     atom  47 (R=0.088)  charge=  3.8849  magn=  0.0049
     atom  48 (R=0.088)  charge=  3.8853  magn=  0.0062
     atom  49 (R=0.089)  charge= 10.1407  magn=  0.0006
     atom  50 (R=0.089)  charge= 10.1399  magn=  0.0034
     atom  51 (R=0.089)  charge= 10.1399  magn=  0.0034
     atom  52 (R=0.089)  charge= 10.1402  magn=  0.0011
     atom  53 (R=0.088)  charge=  3.8849  magn=  0.0049
     atom  54 (R=0.088)  charge=  3.8849  magn=  0.0049
     atom  55 (R=0.088)  charge=  3.8853  magn=  0.0062
     atom  56 (R=0.088)  charge=  3.8849  magn=  0.0049
     atom  57 (R=0.088)  charge= 17.2738  magn=  0.3050
     atom  58 (R=0.089)  charge= 10.1399  magn=  0.0034
     atom  59 (R=0.089)  charge= 10.1399  magn=  0.0034
     atom  60 (R=0.089)  charge= 10.1399  magn=  0.0034
     atom  61 (R=0.088)  charge=  3.8835  magn=  0.0100
     atom  62 (R=0.088)  charge=  3.8789  magn=  0.0545
     atom  63 (R=0.088)  charge=  3.8835  magn=  0.0100
     atom  64 (R=0.088)  charge=  3.8835  magn=  0.0100

     End of self-consistent calculation

 ------ SPIN UP ------------

          k = 0.0000 0.0000 0.0000 (269825 PWs)   bands (ev):

  -106.0846 -63.4611 -63.4611 -63.4611  -7.4542  -6.9175  -6.9175  -6.9152
    -6.9152  -6.9152  -6.9063  -6.6007  -6.6007  -6.6007  -6.5993  -6.5955
    -6.5955  -6.5955  -6.5948  -6.5948  -6.5948  -6.5948  -6.5948  -6.5527
    -6.5527  -6.5527  -6.5404  -6.2835  -6.2835  -6.2835  -6.2662  -6.2662
    -6.2662  -6.2431  -6.2431  -6.2431  -0.7143  -0.7141  -0.7141  -0.7132
    -0.7132  -0.7132  -0.6776  -0.6776  -0.6761  -0.6647  -0.6647  -0.6647
    -0.5748  -0.5748  -0.5748  -0.5741  -0.5741  -0.5664  -0.5664  -0.5664
    -0.5602  -0.5602  -0.5602  -0.5545  -0.5545  -0.5545  -0.5537  -0.5495
    -0.5492  -0.5492  -0.5492  -0.5486  -0.5486  -0.5406  -0.5406  -0.5406
    -0.5397  -0.5397  -0.5397  -0.5347  -0.5347  -0.5347  -0.5291  -0.5291
    -0.5291  -0.5267  -0.5267  -0.5267  -0.5262  -0.5262  -0.5182  -0.5182
    -0.5182  -0.5131  -0.5128  -0.5128  -0.5128  -0.4888  -0.4888  -0.4419
    -0.4419  -0.4419  -0.4048  -0.4048  -0.4048  -0.4008  -0.4008  -0.4008
    -0.3939  -0.3939  -0.3939  -0.3892  -0.3892  -0.3892  -0.3857  -0.3857
    -0.3746  -0.3628  -0.3628  -0.3628  -0.3394  -0.3394  -0.3394  -0.2603
    -0.2603  -0.2603  -0.2513  -0.2513  -0.2513  -0.2497  -0.2497  -0.2490
    -0.2369  -0.2369  -0.2344  -0.2344  -0.2344  -0.2341  -0.2314  -0.2268
    -0.2268  -0.2104  -0.2104  -0.2104  -0.2096  -0.2096  -0.2096  -0.2078
    -0.2031  -0.2031  -0.2031  -0.2010  -0.2010  -0.1856  -0.1856  -0.1698
    -0.1698  -0.1698  -0.1604  -0.1604  -0.1600  -0.1599  -0.1599  -0.1599
    -0.1582  -0.1582  -0.1582  -0.1551  -0.1551  -0.1507  -0.1507  -0.1507
    -0.1316  -0.1316  -0.1316  -0.1304  -0.1264  -0.1264  -0.1264  -0.1210
    -0.1210  -0.1159  -0.0347  -0.0347  -0.0347   0.0048   0.0105   0.0105
     0.0105   0.1425   0.1425   0.1425   0.1839   0.1839   0.1839   0.3936
     0.3936   0.3936   0.4296   1.0364   1.0364   1.0547   1.0592   1.0592
     1.0618   1.0618   1.0618   1.2019   1.5267   1.5267   1.5267   1.6655
     1.6655   1.6733   1.6733   1.6733   1.6745   1.6745   1.6745   1.8597
     2.6213   2.6213   2.6213   2.7222   2.7222   2.8997   2.8997   2.8997
     2.9023   2.9023   2.9023   2.9269   2.9427   2.9427   2.9427   2.9827
     2.9827   3.0714   3.0727   3.0727   3.0807   3.0807   3.0807   3.1210
     3.1210   3.1210   3.1258   3.1258   3.1258   3.1779   3.3475   3.3475
     3.3475   3.3988   3.3988   3.3988   3.6661   3.6661   3.6661   3.9780
     3.9780   4.3468   4.3468   4.3468   4.3549   4.3549   4.3549   4.3609
     4.3609   4.3609   4.4697   4.4697   4.4697   4.6664   4.6664   4.6664
     4.6743   4.6768   4.6768   4.6768   4.6784   4.6784   4.6784   4.6865
     4.6865   4.7101   4.7101   4.7101   4.8908   4.8908   5.1517   5.1517
     5.1517   5.6859   5.6859   5.6859   7.5803   8.8106   8.8106   8.8106
     8.8721   9.0258   9.0258   9.0258   9.6225   9.6225   9.6476   9.9709
     9.9709   9.9812   9.9812   9.9812  10.0319  10.1164  10.1164  10.1375
    10.1375  10.1375  10.1455  10.3067  10.3067  10.3067  10.3088  10.3088
    10.3154  10.3154  10.3154  10.3263  10.3263  10.3263  10.6955  11.2332
    11.2332  11.2332  11.2937  11.2937  11.2937  11.4587  11.4587  11.4587
    11.4602  11.4602  11.7896  11.9492  11.9492  11.9492  12.1683  12.1683
    12.1685  12.1855  12.1855  12.1855  12.1951  12.1951

     occupation numbers
     1.0000   1.0000   1.0000   1.0000   1.0000   1.0000   1.0000   1.0000
     1.0000   1.0000   1.0000   1.0000   1.0000   1.0000   1.0000   1.0000
     1.0000   1.0000   1.0000   1.0000   1.0000   1.0000   1.0000   1.0000
     1.0000   1.0000   1.0000   1.0000   1.0000   1.0000   1.0000   1.0000
     1.0000   1.0000   1.0000   1.0000   1.0000   1.0000   1.0000   1.0000
     1.0000   1.0000   1.0000   1.0000   1.0000   1.0000   1.0000   1.0000
     1.0000   1.0000   1.0000   1.0000   1.0000   1.0000   1.0000   1.0000
     1.0000   1.0000   1.0000   1.0000   1.0000   1.0000   1.0000   1.0000
     1.0000   1.0000   1.0000   1.0000   1.0000   1.0000   1.0000   1.0000
     1.0000   1.0000   1.0000   1.0000   1.0000   1.0000   1.0000   1.0000
     1.0000   1.0000   1.0000   1.0000   1.0000   1.0000   1.0000   1.0000
     1.0000   1.0000   1.0000   1.0000   1.0000   1.0000   1.0000   1.0000
     1.0000   1.0000   1.0000   1.0000   1.0000   1.0000   1.0000   1.0000
     1.0000   1.0000   1.0000   1.0000   1.0000   1.0000   1.0000   1.0000
     1.0000   1.0000   1.0000   1.0000   1.0000   1.0000   1.0000   1.0000
     1.0000   1.0000   1.0000   1.0000   1.0000   1.0000   1.0000   1.0000
     1.0000   1.0000   1.0000   1.0000   1.0000   1.0000   1.0000   1.0000
     1.0000   1.0000   1.0000   1.0000   1.0000   1.0000   1.0000   1.0000
     1.0000   1.0000   1.0000   1.0000   1.0000   1.0000   1.0000   1.0000
     1.0000   1.0000   1.0000   1.0000   1.0000   1.0000   1.0000   1.0000
     1.0000   1.0000   1.0000   1.0000   1.0000   1.0000   1.0000   1.0000
     1.0000   1.0000   1.0000   1.0000   1.0000   1.0000   1.0000   1.0000
     1.0000   1.0000   1.0000   1.0000   1.0000   1.0000   1.0000   1.0000
     1.0000   1.0000   1.0000   1.0000   1.0000   1.0000   1.0000   1.0000
     1.0000   1.0000   1.0000   1.0000   1.0000   1.0000   1.0000   1.0000
     1.0000   1.0000   1.0000   1.0000   1.0000   1.0000   1.0000   1.0000
     1.0000   1.0000   1.0000   1.0000   1.0000   1.0000   1.0000   1.0000
     1.0000   1.0000   1.0000   1.0000   1.0000   1.0000   1.0000   1.0000
     1.0000   1.0000   1.0000   1.0000   1.0000   1.0000   1.0000   1.0000
     1.0000   1.0000   1.0000   1.0000   1.0000   1.0000   1.0000   1.0000
     1.0000   1.0000   1.0000   1.0000   1.0000   1.0000   1.0000   1.0000
     1.0000   1.0000   1.0000   1.0000   1.0000   1.0000   1.0000   1.0000
     1.0000   1.0000   1.0000   1.0000   1.0000   1.0000   1.0000   1.0000
     1.0000   1.0000   1.0000   1.0000   1.0000   1.0000   1.0000   1.0000
     1.0000   1.0000   1.0000   1.0000   1.0000   1.0000   1.0000   1.0000
     1.0000   1.0000   1.0000   1.0000   1.0000   1.0000   1.0000   1.0000
     1.0000   0.9749   0.9749   0.9749   0.0000   0.0000   0.0000   0.0000
     0.0000   0.0000   0.0000   0.0000   0.0000   0.0000   0.0000   0.0000
     0.0000   0.0000   0.0000   0.0000   0.0000   0.0000   0.0000   0.0000
     0.0000   0.0000   0.0000   0.0000   0.0000   0.0000   0.0000   0.0000
     0.0000   0.0000   0.0000   0.0000   0.0000   0.0000   0.0000   0.0000
     0.0000   0.0000   0.0000   0.0000   0.0000   0.0000   0.0000   0.0000
     0.0000   0.0000   0.0000   0.0000   0.0000   0.0000   0.0000   0.0000
     0.0000   0.0000   0.0000   0.0000   0.0000   0.0000

[...]

          k =-0.5000-0.5000-0.5000 (269968 PWs)   bands (ev):

[...]

 ------ SPIN DOWN ----------

[...]

          k = 0.2500-0.5000-0.5000 (269956 PWs)   bands (ev):

[...]

          k =-0.5000-0.5000-0.5000 (269968 PWs)   bands (ev):

  -105.7117 -63.0976 -63.0976 -63.0976  -7.0645  -7.0490  -7.0490  -7.0490
    -7.0293  -7.0293  -7.0293  -6.9683  -6.4470  -6.4470  -6.4470  -6.4381
    -6.4321  -6.4321  -6.4321  -6.4320  -6.4320  -6.4289  -6.4289  -6.4289
    -6.4163  -6.4163  -6.4163  -6.4131  -6.4131  -6.4120  -6.4120  -6.4120
    -6.3591  -6.3155  -6.3155  -6.3155  -0.6319  -0.6319  -0.6319  -0.6293
    -0.6232  -0.6232  -0.6232  -0.6171  -0.6171  -0.6171  -0.6159  -0.6159
    -0.6084  -0.6084  -0.6084  -0.6042  -0.6042  -0.6035  -0.6026  -0.6026
    -0.6026  -0.6022  -0.5936  -0.5936  -0.5936  -0.5903  -0.5903  -0.5890
    -0.5890  -0.5890  -0.5881  -0.5881  -0.5881  -0.5836  -0.5836  -0.5836
    -0.5792  -0.5792  -0.5792  -0.5769  -0.5769  -0.5769  -0.5489  -0.5314
    -0.5314  -0.5223  -0.5223  -0.5223  -0.4675  -0.4644  -0.4644  -0.4644
    -0.4599  -0.4599  -0.4599  -0.4573  -0.4573  -0.4573  -0.4547  -0.4547
    -0.4437  -0.4437  -0.4437  -0.4420  -0.4420  -0.4420  -0.4327  -0.4310
    -0.4310  -0.3761  -0.3761  -0.3761  -0.3477  -0.3477  -0.3475  -0.3475
    -0.3475  -0.3474  -0.3474  -0.3474  -0.3439  -0.3439  -0.3439  -0.3401
    -0.3361  -0.3361  -0.3361  -0.3340  -0.3340  -0.3340  -0.3180  -0.3038
    -0.3038  -0.2094  -0.2094  -0.2020  -0.2020  -0.2020  -0.2011  -0.2011
    -0.2011  -0.1914  -0.1914  -0.1914  -0.1849  -0.1849  -0.1849  -0.1734
    -0.1734  -0.1734  -0.1687  -0.1687  -0.1668  -0.1668  -0.1668  -0.1635
    -0.1571  -0.1571  -0.1507  -0.1507  -0.1507  -0.1477  -0.1477  -0.1477
    -0.1416  -0.1416  -0.1416  -0.1340  -0.1340  -0.1340  -0.1335  -0.0949
    -0.0949  -0.0949  -0.0472  -0.0472  -0.0449  -0.0449  -0.0449  -0.0392
    -0.0365  -0.0365  -0.0365  -0.0353  -0.0353  -0.0353  -0.0316  -0.0316
    -0.0259  -0.0259  -0.0259  -0.0250  -0.0250  -0.0250  -0.0026   1.0728
     1.0728   1.0728   1.1344   1.1344   1.1511   1.1610   1.1610   1.1610
     1.1619   1.1619   1.1619   1.1770   1.1770   1.1770   1.1802   1.1802
     1.1930   1.1930   1.1930   1.1966   1.1966   1.1966   1.5418   2.5416
     2.5416   2.5416   2.7708   2.7775   2.7775   2.7775   2.8728   2.9706
     2.9706   3.0696   3.0696   3.0696   3.2187   3.2187   3.2187   3.2191
     3.2225   3.2225   3.2335   3.2335   3.2335   3.2366   3.2366   3.2366
     3.2389   3.2389   3.2389   3.2659   3.2659   3.2659   3.3303   3.6415
     3.6415   3.6415   3.8513   3.8513   3.9961   3.9994   3.9994   3.9994
     4.0062   4.0062   4.0062   4.0097   4.0097   4.0164   4.0164   4.0164
     4.0191   4.0191   4.0191   4.0382   4.0412   4.0412   4.0412   4.4649
     4.4649   4.5001   4.5001   4.5001   5.0885   5.0885   5.0885   5.0964
     5.0964   5.0964   5.0967   5.0967   5.1144   5.1144   5.1144   5.1831
     5.1831   5.7158   5.7158   5.7158   8.9394   8.9487   8.9487   8.9487
     8.9623   8.9623   8.9623   9.1049   9.8551   9.8551   9.8585   9.8585
     9.8585   9.8608   9.8608   9.8608   9.8651   9.8651   9.8651   9.8672
     9.8801   9.8801   9.8801   9.8858   9.8858   9.8858   9.9067   9.9067
     9.9560   9.9560   9.9560  10.2364  11.4476  11.4476  11.4476  11.4597
    11.4597  11.4597  11.4653  11.4653  11.4653  11.4673  11.4673  11.4673
    11.4744  11.4756  11.4756  11.4777  11.4777  11.4777  11.4931  11.4931
    11.5784  11.5785  11.5785  12.0419  12.4162  12.4245

     occupation numbers
     1.0000   1.0000   1.0000   1.0000   1.0000   1.0000   1.0000   1.0000
     1.0000   1.0000   1.0000   1.0000   1.0000   1.0000   1.0000   1.0000
     1.0000   1.0000   1.0000   1.0000   1.0000   1.0000   1.0000   1.0000
     1.0000   1.0000   1.0000   1.0000   1.0000   1.0000   1.0000   1.0000
     1.0000   1.0000   1.0000   1.0000   1.0000   1.0000   1.0000   1.0000
     1.0000   1.0000   1.0000   1.0000   1.0000   1.0000   1.0000   1.0000
     1.0000   1.0000   1.0000   1.0000   1.0000   1.0000   1.0000   1.0000
     1.0000   1.0000   1.0000   1.0000   1.0000   1.0000   1.0000   1.0000
     1.0000   1.0000   1.0000   1.0000   1.0000   1.0000   1.0000   1.0000
     1.0000   1.0000   1.0000   1.0000   1.0000   1.0000   1.0000   1.0000
     1.0000   1.0000   1.0000   1.0000   1.0000   1.0000   1.0000   1.0000
     1.0000   1.0000   1.0000   1.0000   1.0000   1.0000   1.0000   1.0000
     1.0000   1.0000   1.0000   1.0000   1.0000   1.0000   1.0000   1.0000
     1.0000   1.0000   1.0000   1.0000   1.0000   1.0000   1.0000   1.0000
     1.0000   1.0000   1.0000   1.0000   1.0000   1.0000   1.0000   1.0000
     1.0000   1.0000   1.0000   1.0000   1.0000   1.0000   1.0000   1.0000
     1.0000   1.0000   1.0000   1.0000   1.0000   1.0000   1.0000   1.0000
     1.0000   1.0000   1.0000   1.0000   1.0000   1.0000   1.0000   1.0000
     1.0000   1.0000   1.0000   1.0000   1.0000   1.0000   1.0000   1.0000
     1.0000   1.0000   1.0000   1.0000   1.0000   1.0000   1.0000   1.0000
     1.0000   1.0000   1.0000   1.0000   1.0000   1.0000   1.0000   1.0000
     1.0000   1.0000   1.0000   1.0000   1.0000   1.0000   1.0000   1.0000
     1.0000   1.0000   1.0000   1.0000   1.0000   1.0000   1.0000   1.0000
     1.0000   1.0000   1.0000   1.0000   1.0000   1.0000   1.0000   1.0000
     1.0000   1.0000   1.0000   1.0000   1.0000   1.0000   1.0000   1.0000
     1.0000   1.0000   1.0000   1.0000   1.0000   1.0000   1.0000   1.0000
     1.0000   1.0000   1.0000   1.0000   1.0000   1.0000   1.0000   1.0000
     1.0000   1.0000   1.0000   1.0000   1.0000   1.0000   1.0000   1.0000
     1.0000   1.0000   1.0000   1.0000   1.0000   1.0000   1.0000   1.0000
     1.0000   1.0000   1.0000   1.0000   1.0000   1.0000   1.0000   1.0000
     1.0000   1.0000   1.0000   1.0000   1.0000   1.0000   1.0000   1.0000
     1.0000   1.0000   1.0000   1.0000   1.0000   1.0000   1.0000   1.0000
     1.0000   1.0000   1.0000   1.0000   1.0000   1.0000   1.0000   1.0000
     1.0000   1.0000   1.0000   1.0000   1.0000   1.0000   1.0000   1.0000
     1.0000   1.0000   1.0000   1.0000   1.0000   1.0000   1.0000   1.0000
     1.0000   1.0000   1.0000   1.0000   1.0000   1.0000   1.0000   1.0000
     1.0000   0.1248   0.1248   0.1248   0.0000   0.0000   0.0000   0.0000
     0.0000   0.0000   0.0000   0.0000   0.0000   0.0000   0.0000   0.0000
     0.0000   0.0000   0.0000   0.0000   0.0000   0.0000   0.0000   0.0000
     0.0000   0.0000   0.0000   0.0000   0.0000   0.0000   0.0000   0.0000
     0.0000   0.0000   0.0000   0.0000   0.0000   0.0000   0.0000   0.0000
     0.0000   0.0000   0.0000   0.0000   0.0000   0.0000   0.0000   0.0000
     0.0000   0.0000   0.0000   0.0000   0.0000   0.0000   0.0000   0.0000
     0.0000   0.0000   0.0000   0.0000   0.0000   0.0000

     the Fermi energy is     5.7047 ev

!    total energy              =  -10167.40965943 Ry
     total all-electron energy =   -140218.039828 Ry
     estimated scf accuracy    <          4.7E-09 Ry
     smearing contrib. (-TS)   =      -0.00008294 Ry
     internal energy E=F+TS    =  -10167.40957649 Ry

     The total energy is F=E-TS. E is the sum of the following terms:
     one-electron contribution =   -3068.83245941 Ry
     hartree contribution      =    2112.90059959 Ry
     xc contribution           =   -1665.63033369 Ry
     ewald contribution        =   -3012.71564642 Ry
     one-center paw contrib.   =   -4533.13173655 Ry
      -> PAW hartree energy AE =     123.25965782 Ry
      -> PAW hartree energy PS =    -122.61790972 Ry
      -> PAW xc energy AE      =    -143.20780987 Ry
      -> PAW xc energy PS      =      47.14643953 Ry
      -> total E_H with PAW    =    2113.54234768 Ry
      -> total E_XC with PAW   =   -1761.69170403 Ry

     total magnetization       =     1.00 Bohr mag/cell
     absolute magnetization    =     1.04 Bohr mag/cell

     convergence has been achieved in  14 iterations

     Writing all to output data dir ./out/Cu_q0.save/

     General routines

     Parallel routines

     PAW routines

   This run was terminated on:   1:13:57  29Jun2024

   JOB DONE.