     Program PWSCF v.7.2 starts on 10Jul2024 at 13: 9: 7

     Reading input from 1.Co_vac_in_ZnS.relax.qn2.in.part3

     Current dimensions of program PWSCF are:
     Max number of different atomic species (ntypx) = 10
     Max number of k-points (npk) =  40000
     Max angular momentum in pseudopotentials (lmaxx) =  4
     file S.pbe-n-kjpaw_psl.1.0.0.UPF: wavefunction(s)  3S 3P renormalized
     file Zn.pbe-dnl-kjpaw_psl.1.0.0.UPF: wavefunction(s)  4S 3D renormalized
     file Co.pbe-spn-kjpaw_psl.0.3.1.UPF: wavefunction(s)  3P 3D renormalized

     K-points division:     npool     =       7
     R & G space division:  proc/nbgrp/npool/nimage =     112
     Subspace diagonalization in iterative solution of the eigenvalue problem:
     one sub-group per band group will be used

     Using Slab Decomposition

     bravais-lattice index     =            1
     lattice parameter (alat)  =      20.5686  a.u.
     unit-cell volume          =    8701.8437 (a.u.)^3
     number of atoms/cell      =           63
     number of atomic types    =            3
     number of electrons       =       577.00
     number of Kohn-Sham states=          347
     kinetic-energy cutoff     =     150.0000  Ry
     charge density cutoff     =     600.0000  Ry
     scf convergence threshold =      1.0E-08
     mixing beta               =       0.7000
     number of iterations used =            8  plain     mixing
     energy convergence thresh.=      1.0E-05
     force convergence thresh. =      1.0E-04
     Exchange-correlation= SLA  PW   PBX  PBC
                           (   1   4   3   4   0   0   0)
     nstep                     =           50

     celldm(1)=  20.568554  celldm(2)=   0.000000  celldm(3)=   0.000000
     celldm(4)=   0.000000  celldm(5)=   0.000000  celldm(6)=   0.000000

     crystal axes: (cart. coord. in units of alat)
               a(1) = (   1.000000   0.000000   0.000000 )
               a(2) = (   0.000000   1.000000   0.000000 )
               a(3) = (   0.000000   0.000000   1.000000 )

     reciprocal axes: (cart. coord. in units 2 pi/alat)
               b(1) = (  1.000000  0.000000  0.000000 )
               b(2) = (  0.000000  1.000000  0.000000 )
               b(3) = (  0.000000  0.000000  1.000000 )

     PseudoPot. # 1 for S  read from file:
     /arf/home/amuhaymin/pseudo/S.pbe-n-kjpaw_psl.1.0.0.UPF
     MD5 check sum: fb45dfebcf3e72a4e1bd4a866ec2e262
     Pseudo is Projector augmented-wave + core cor, Zval =  6.0
     Generated using &quot;atomic&quot; code by A. Dal Corso  v.6.3
     Shape of augmentation charge: PSQ
     Using radial grid of 1151 points,  6 beta functions with:
                l(1) =   0
                l(2) =   0
                l(3) =   1
                l(4) =   1
                l(5) =   2
                l(6) =   2
     Q(r) pseudized with 0 coefficients

     PseudoPot. # 2 for Zn read from file:
     /arf/home/amuhaymin/pseudo/Zn.pbe-dnl-kjpaw_psl.1.0.0.UPF
     MD5 check sum: c608214d9520ac179f507641260889e3
     Pseudo is Projector augmented-wave + core cor, Zval = 12.0
     Generated using &quot;atomic&quot; code by A. Dal Corso  v.6.2.2
     Shape of augmentation charge: PSQ
     Using radial grid of 1201 points,  6 beta functions with:
                l(1) =   0
                l(2) =   0
                l(3) =   1
                l(4) =   1
                l(5) =   2
                l(6) =   2
     Q(r) pseudized with 0 coefficients

     PseudoPot. # 3 for Co read from file:
     /arf/home/amuhaymin/pseudo/Co.pbe-spn-kjpaw_psl.0.3.1.UPF
     MD5 check sum: b0a1ad65bf214e88c1f3d33b20c7d919
     Pseudo is Projector augmented-wave + core cor, Zval = 17.0
     Generated using &quot;atomic&quot; code by A. Dal Corso  v.6.2.2
     Shape of augmentation charge: PSQ
     Using radial grid of 1193 points,  6 beta functions with:
                l(1) =   0
                l(2) =   0
                l(3) =   1
                l(4) =   1
                l(5) =   2
                l(6) =   2
     Q(r) pseudized with 0 coefficients

     atomic species   valence    mass     pseudopotential
        S              6.00    32.06500     S ( 1.00)
        Zn            12.00    65.38000     Zn( 1.00)
        Co            17.00    63.54600     Co( 1.00)

     Starting magnetic structure
     atomic species   magnetization
        S            0.000
        Zn           0.000
        Co           0.059

      6 Sym. Ops. (no inversion) found

                                    s                        frac. trans.

      isym =  1     identity

 cryst.   s( 1) = (     1          0          0      )
                  (     0          1          0      )
                  (     0          0          1      )

 cart.    s( 1) = (  1.0000000  0.0000000  0.0000000 )
                  (  0.0000000  1.0000000  0.0000000 )
                  (  0.0000000  0.0000000  1.0000000 )

      isym =  2     120 deg rotation - cart. axis [-1,-1,-1]

[...]

      isym =  3     120 deg rotation - cart. axis [1,1,1]

[...]

      isym =  4     inv. 180 deg rotation - cart. axis [1,-1,0]

[...]

      isym =  6     inv. 180 deg rotation - cart. axis [0,1,-1]

 cryst.   s( 6) = (     1          0          0      )
                  (     0          0          1      )
                  (     0          1          0      )

 cart.    s( 6) = (  1.0000000  0.0000000  0.0000000 )
                  (  0.0000000  0.0000000  1.0000000 )
                  (  0.0000000  1.0000000  0.0000000 )

     point group C_3v (3m)
     there are  3 classes
     the character table:

       E     2C3   3s_v
A_1    1.00  1.00  1.00
A_2    1.00  1.00 -1.00
E      2.00 -1.00  0.00

     the symmetry operations in each class and the name of the first element:

     E        1
          identity
     2C3      2    3
          120 deg rotation - cart. axis [-1,-1,-1]
     3s_v     4    5    6
          inv. 180 deg rotation - cart. axis [1,-1,0]

   Cartesian axes

     site n.     atom                  positions (alat units)
         1           Zn  tau(   1) = (  -0.0000667  -0.0000667  -0.0000667  )
         2           Zn  tau(   2) = (   0.0024842   0.2526189   0.2526189  )
         3           Zn  tau(   3) = (   0.2526189   0.0024842   0.2526189  )
         4           Zn  tau(   4) = (   0.2526189   0.2526189   0.0024842  )
         5           S   tau(   5) = (   0.1291007   0.3779867   0.3779867  )
         6           S   tau(   6) = (   0.1260360   0.1260360   0.1260360  )
         7           S   tau(   7) = (   0.3779867   0.3779867   0.1291007  )
         8           S   tau(   8) = (   0.3779867   0.1291007   0.3779867  )
         9           Zn  tau(   9) = (  -0.0045721  -0.0045721   0.5057268  )
        10           Zn  tau(  10) = (  -0.0015204   0.2519182   0.7502558  )
        11           Zn  tau(  11) = (   0.2519182  -0.0015204   0.7502558  )
        12           Zn  tau(  12) = (   0.2601308   0.2601308   0.5070521  )
        13           S   tau(  13) = (   0.1254985   0.3759376   0.8763898  )
        14           S   tau(  14) = (   0.1274537   0.1274537   0.6252312  )
        15           S   tau(  15) = (   0.3908576   0.3908576   0.6246613  )
        16           S   tau(  16) = (   0.3759376   0.1254985   0.8763898  )
        17           Zn  tau(  17) = (  -0.0045721   0.5057268  -0.0045721  )
        18           Zn  tau(  18) = (  -0.0015204   0.7502558   0.2519182  )
        19           Zn  tau(  19) = (   0.2601308   0.5070521   0.2601308  )
        20           Zn  tau(  20) = (   0.2519182   0.7502558  -0.0015204  )
        21           S   tau(  21) = (   0.1254985   0.8763898   0.3759376  )
        22           S   tau(  22) = (   0.1274537   0.6252312   0.1274537  )
        23           S   tau(  23) = (   0.3759376   0.8763898   0.1254985  )
        24           S   tau(  24) = (   0.3908576   0.6246613   0.3908576  )
        25           Zn  tau(  25) = (  -0.0014341   0.5015440   0.5015440  )
        26           Zn  tau(  26) = (  -0.0081890   0.7487706   0.7487706  )
        27           Zn  tau(  27) = (   0.2531405   0.4992574   0.7497434  )
        28           Zn  tau(  28) = (   0.2531405   0.7497434   0.4992574  )
        29           S   tau(  29) = (   0.1236068   0.8740271   0.8740271  )
        30           S   tau(  30) = (   0.1256157   0.6260401   0.6260401  )
        31           S   tau(  31) = (   0.3776342   0.8730319   0.6260637  )
        32           S   tau(  32) = (   0.3776342   0.6260637   0.8730319  )
        33           Zn  tau(  33) = (   0.5057268  -0.0045721  -0.0045721  )
        34           Zn  tau(  34) = (   0.5070521   0.2601308   0.2601308  )
        35           Zn  tau(  35) = (   0.7502558  -0.0015204   0.2519182  )
        36           Zn  tau(  36) = (   0.7502558   0.2519182  -0.0015204  )
        37           S   tau(  37) = (   0.6246613   0.3908576   0.3908576  )
        38           S   tau(  38) = (   0.6252312   0.1274537   0.1274537  )
        39           S   tau(  39) = (   0.8763898   0.3759376   0.1254985  )
        40           S   tau(  40) = (   0.8763898   0.1254985   0.3759376  )
        41           Zn  tau(  41) = (   0.5015440  -0.0014341   0.5015440  )
        42           Zn  tau(  42) = (   0.4992574   0.2531405   0.7497434  )
        43           Zn  tau(  43) = (   0.7487706  -0.0081890   0.7487706  )
        44           Zn  tau(  44) = (   0.7497434   0.2531405   0.4992574  )
        45           S   tau(  45) = (   0.6260637   0.3776342   0.8730319  )
        46           S   tau(  46) = (   0.6260401   0.1256157   0.6260401  )
        47           S   tau(  47) = (   0.8730319   0.3776342   0.6260637  )
        48           S   tau(  48) = (   0.8740271   0.1236068   0.8740271  )
        49           Zn  tau(  49) = (   0.5015440   0.5015440  -0.0014341  )
        50           Zn  tau(  50) = (   0.4992574   0.7497434   0.2531405  )
        51           Zn  tau(  51) = (   0.7497434   0.4992574   0.2531405  )
        52           Zn  tau(  52) = (   0.7487706   0.7487706  -0.0081890  )
        53           S   tau(  53) = (   0.6260637   0.8730319   0.3776342  )
        54           S   tau(  54) = (   0.6260401   0.6260401   0.1256157  )
        55           S   tau(  55) = (   0.8740271   0.8740271   0.1236068  )
        56           S   tau(  56) = (   0.8730319   0.6260637   0.3776342  )
        57           Co  tau(  57) = (   0.5365372   0.5365372   0.5365372  )
        58           Zn  tau(  58) = (   0.5047055   0.6993549   0.6993549  )
        59           Zn  tau(  59) = (   0.6993549   0.5047055   0.6993549  )
        60           Zn  tau(  60) = (   0.6993549   0.6993549   0.5047055  )
        61           S   tau(  61) = (   0.6196436   0.8655815   0.8655815  )
        62           S   tau(  62) = (   0.8655815   0.8655815   0.6196436  )
        63           S   tau(  63) = (   0.8655815   0.6196436   0.8655815  )

   Crystallographic axes

     site n.     atom                  positions (cryst. coord.)
         1           Zn  tau(   1) = ( -0.0000667 -0.0000667 -0.0000667  )
         2           Zn  tau(   2) = (  0.0024842  0.2526189  0.2526189  )
[...]
     atom    8 type  1   force =     0.00000000    0.00000000    0.00000000
     atom    9 type  2   force =     0.00000000    0.00000000    0.00000000
     atom   10 type  2   force =     0.00000000    0.00000000    0.00000000
     atom   11 type  2   force =     0.00000000    0.00000000    0.00000000
     atom   12 type  2   force =     0.00000000    0.00000000    0.00000000
     atom   13 type  1   force =     0.00000000    0.00000000    0.00000000
     atom   14 type  1   force =     0.00000000    0.00000000    0.00000000
     atom   15 type  1   force =     0.00000000    0.00000000    0.00000000
     atom   16 type  1   force =     0.00000000    0.00000000    0.00000000
     atom   17 type  2   force =     0.00000000    0.00000000    0.00000000
     atom   18 type  2   force =     0.00000000    0.00000000    0.00000000
     atom   19 type  2   force =     0.00000000    0.00000000    0.00000000
     atom   20 type  2   force =     0.00000000    0.00000000    0.00000000
     atom   21 type  1   force =     0.00000000    0.00000000    0.00000000
     atom   22 type  1   force =     0.00000000    0.00000000    0.00000000
     atom   23 type  1   force =     0.00000000    0.00000000    0.00000000
     atom   24 type  1   force =     0.00000000    0.00000000    0.00000000
     atom   25 type  2   force =     0.00000000    0.00000000    0.00000000
     atom   26 type  2   force =     0.00000000    0.00000000    0.00000000
     atom   27 type  2   force =     0.00000000    0.00000000    0.00000000
     atom   28 type  2   force =     0.00000000    0.00000000    0.00000000
     atom   29 type  1   force =     0.00000000    0.00000000    0.00000000
     atom   30 type  1   force =     0.00000000    0.00000000    0.00000000
     atom   31 type  1   force =     0.00000000    0.00000000    0.00000000
     atom   32 type  1   force =     0.00000000    0.00000000    0.00000000
     atom   33 type  2   force =     0.00000000    0.00000000    0.00000000
     atom   34 type  2   force =     0.00000000    0.00000000    0.00000000
     atom   35 type  2   force =     0.00000000    0.00000000    0.00000000
     atom   36 type  2   force =     0.00000000    0.00000000    0.00000000
     atom   37 type  1   force =     0.00000000    0.00000000    0.00000000
     atom   38 type  1   force =     0.00000000    0.00000000    0.00000000
     atom   39 type  1   force =     0.00000000    0.00000000    0.00000000
     atom   40 type  1   force =     0.00000000    0.00000000    0.00000000
     atom   41 type  2   force =     0.00000000    0.00000000    0.00000000
     atom   42 type  2   force =     0.00000000    0.00000000    0.00000000
     atom   43 type  2   force =     0.00000000    0.00000000    0.00000000
     atom   44 type  2   force =     0.00000000    0.00000000    0.00000000
     atom   45 type  1   force =     0.00000000    0.00000000    0.00000000
     atom   46 type  1   force =     0.00000000    0.00000000    0.00000000
     atom   47 type  1   force =     0.00000000    0.00000000    0.00000000
     atom   48 type  1   force =     0.00000000    0.00000000    0.00000000
     atom   49 type  2   force =     0.00000000    0.00000000    0.00000000
     atom   50 type  2   force =     0.00000000    0.00000000    0.00000000
     atom   51 type  2   force =     0.00000000    0.00000000    0.00000000
     atom   52 type  2   force =     0.00000000    0.00000000    0.00000000
     atom   53 type  1   force =     0.00000000    0.00000000    0.00000000
     atom   54 type  1   force =     0.00000000    0.00000000    0.00000000
     atom   55 type  1   force =     0.00000000    0.00000000    0.00000000
     atom   56 type  1   force =     0.00000000    0.00000000    0.00000000
     atom   57 type  3   force =     0.00000000    0.00000000    0.00000000
     atom   58 type  2   force =     0.00000000    0.00000000    0.00000000
     atom   59 type  2   force =     0.00000000    0.00000000    0.00000000
     atom   60 type  2   force =     0.00000000    0.00000000    0.00000000
     atom   61 type  1   force =     0.00000000    0.00000000    0.00000000
     atom   62 type  1   force =     0.00000000    0.00000000    0.00000000
     atom   63 type  1   force =     0.00000000    0.00000000    0.00000000
     The SCF correction term to forces
     atom    1 type  2   force =     0.00000065    0.00000065    0.00000065
     atom    2 type  2   force =     0.00000173    0.00000040    0.00000040
     atom    3 type  2   force =     0.00000040    0.00000173    0.00000040
     atom    4 type  2   force =     0.00000040    0.00000040    0.00000173
     atom    5 type  1   force =     0.00000102   -0.00000000   -0.00000000
     atom    6 type  1   force =     0.00000047    0.00000047    0.00000047
     atom    7 type  1   force =    -0.00000000   -0.00000000    0.00000102
     atom    8 type  1   force =    -0.00000000    0.00000102   -0.00000000
     atom    9 type  2   force =     0.00000114    0.00000114   -0.00000166
     atom   10 type  2   force =     0.00000052    0.00000049   -0.00000129
     atom   11 type  2   force =     0.00000049    0.00000052   -0.00000129
     atom   12 type  2   force =     0.00000152    0.00000152   -0.00000097
     atom   13 type  1   force =     0.00000038   -0.00000041    0.00000003
     atom   14 type  1   force =     0.00000073    0.00000073    0.00000019
     atom   15 type  1   force =    -0.00000144   -0.00000144    0.00000054
     atom   16 type  1   force =    -0.00000041    0.00000038    0.00000003
     atom   17 type  2   force =     0.00000114   -0.00000166    0.00000114
     atom   18 type  2   force =     0.00000052   -0.00000129    0.00000049
     atom   19 type  2   force =     0.00000152   -0.00000097    0.00000152
     atom   20 type  2   force =     0.00000049   -0.00000129    0.00000052
     atom   21 type  1   force =     0.00000038    0.00000003   -0.00000041
     atom   22 type  1   force =     0.00000073    0.00000019    0.00000073
     atom   23 type  1   force =    -0.00000041    0.00000003    0.00000038
     atom   24 type  1   force =    -0.00000144    0.00000054   -0.00000144
     atom   25 type  2   force =     0.00000101   -0.00000174   -0.00000174
     atom   26 type  2   force =     0.00000365   -0.00000000   -0.00000000
     atom   27 type  2   force =     0.00000065   -0.00000068   -0.00000152
     atom   28 type  2   force =     0.00000065   -0.00000152   -0.00000068
     atom   29 type  1   force =     0.00000106    0.00000011    0.00000011
     atom   30 type  1   force =     0.00000271   -0.00000068   -0.00000068
     atom   31 type  1   force =    -0.00000098   -0.00000019   -0.00000088
     atom   32 type  1   force =    -0.00000098   -0.00000088   -0.00000019
     atom   33 type  2   force =    -0.00000166    0.00000114    0.00000114
     atom   34 type  2   force =    -0.00000097    0.00000152    0.00000152
     atom   35 type  2   force =    -0.00000129    0.00000052    0.00000049
     atom   36 type  2   force =    -0.00000129    0.00000049    0.00000052
     atom   37 type  1   force =     0.00000054   -0.00000144   -0.00000144
     atom   38 type  1   force =     0.00000019    0.00000073    0.00000073
     atom   39 type  1   force =     0.00000003   -0.00000041    0.00000038
     atom   40 type  1   force =     0.00000003    0.00000038   -0.00000041
     atom   41 type  2   force =    -0.00000174    0.00000101   -0.00000174
     atom   42 type  2   force =    -0.00000068    0.00000065   -0.00000152
     atom   43 type  2   force =    -0.00000000    0.00000365   -0.00000000
     atom   44 type  2   force =    -0.00000152    0.00000065   -0.00000068
     atom   45 type  1   force =    -0.00000088   -0.00000098   -0.00000019
     atom   46 type  1   force =    -0.00000068    0.00000271   -0.00000068
     atom   47 type  1   force =    -0.00000019   -0.00000098   -0.00000088
     atom   48 type  1   force =     0.00000011    0.00000106    0.00000011
     atom   49 type  2   force =    -0.00000174   -0.00000174    0.00000101
     atom   50 type  2   force =    -0.00000068   -0.00000152    0.00000065
     atom   51 type  2   force =    -0.00000152   -0.00000068    0.00000065
     atom   52 type  2   force =    -0.00000000   -0.00000000    0.00000365
     atom   53 type  1   force =    -0.00000088   -0.00000019   -0.00000098
     atom   54 type  1   force =    -0.00000068   -0.00000068    0.00000271
     atom   55 type  1   force =     0.00000011    0.00000011    0.00000106
     atom   56 type  1   force =    -0.00000019   -0.00000088   -0.00000098
     atom   57 type  3   force =    -0.00000843   -0.00000843   -0.00000843
     atom   58 type  2   force =    -0.00000461    0.00000068    0.00000068
     atom   59 type  2   force =     0.00000068   -0.00000461    0.00000068
     atom   60 type  2   force =     0.00000068    0.00000068   -0.00000461
     atom   61 type  1   force =    -0.00000183    0.00000045    0.00000045
     atom   62 type  1   force =     0.00000045    0.00000045   -0.00000183
     atom   63 type  1   force =     0.00000045   -0.00000183    0.00000045

     Total force =     0.000355     Total SCF correction =     0.000022

     Computing stress (Cartesian axis) and pressure

          total   stress  (Ry/bohr**3)                   (kbar)     P=       11.32
   0.00007694  -0.00001973  -0.00001973           11.32       -2.90       -2.90
  -0.00001973   0.00007694  -0.00001973           -2.90       11.32       -2.90
  -0.00001973  -0.00001973   0.00007694           -2.90       -2.90       11.32

     kinetic stress (kbar)  12146.41    -11.74    -11.74
                              -11.74  12146.41    -11.74
                              -11.74    -11.74  12146.41

     local   stress (kbar)  -1511.22    367.38    367.38
                              367.38  -1511.22    367.38
                              367.38    367.38  -1511.22

     nonloc. stress (kbar)   -516.25     -7.47     -7.47
                               -7.47   -516.25     -7.47
                               -7.47     -7.47   -516.25

     hartree stress (kbar)  11652.93   -148.39   -148.39
                             -148.39  11652.93   -148.39
                             -148.39   -148.39  11652.93

     exc-cor stress (kbar)   8274.84     -0.36     -0.36
                               -0.36   8274.84     -0.36
                               -0.36     -0.36   8274.84

     corecor stress (kbar) -13517.98      0.11      0.11
                                0.11 -13517.98      0.11
                                0.11      0.11 -13517.98

     ewald   stress (kbar) -16517.41   -202.44   -202.44
                             -202.44 -16517.41   -202.44
                             -202.44   -202.44 -16517.41

     hubbard stress (kbar)      0.00      0.00      0.00
                                0.00      0.00      0.00
                                0.00      0.00      0.00

     DFT-D   stress (kbar)      0.00      0.00      0.00
                                0.00      0.00      0.00
                                0.00      0.00      0.00

     XDM     stress (kbar)      0.00      0.00      0.00
                                0.00      0.00      0.00
                                0.00      0.00      0.00

     dft-nl  stress (kbar)      0.00      0.00      0.00
                                0.00      0.00      0.00
                                0.00      0.00      0.00

     TS-vdW  stress (kbar)      0.00      0.00      0.00
                                0.00      0.00      0.00
                                0.00      0.00      0.00

     MDB     stress (kbar)      0.00      0.00      0.00
                                0.00      0.00      0.00
                                0.00      0.00      0.00

     3D-RISM stress (kbar)      0.00      0.00      0.00
                                0.00      0.00      0.00
                                0.00      0.00      0.00

     Energy error            =      5.9E-07 Ry
     Gradient error          =      6.8E-05 Ry/Bohr

     bfgs converged in   4 scf cycles and   3 bfgs steps
     (criteria: energy <  1.0E-05 Ry, force <  1.0E-04 Ry/Bohr)

     End of BFGS Geometry Optimization

     Final energy             =   -9989.7054356806 Ry

     File ./out/Co_vac_qn2.bfgs deleted, as requested
Begin final coordinates

ATOMIC_POSITIONS (crystal)
Zn           -0.0000770610       -0.0000770610       -0.0000770610
Zn            0.0024715779        0.2526273328        0.2526273328
Zn            0.2526273328        0.0024715779        0.2526273328
Zn            0.2526273328        0.2526273328        0.0024715779
S             0.1291081408        0.3779775738        0.3779775738
S             0.1260651837        0.1260651837        0.1260651837
S             0.3779775738        0.3779775738        0.1291081408
S             0.3779775738        0.1291081408        0.3779775738
Zn           -0.0045565155       -0.0045565155        0.5057394058
Zn           -0.0015220173        0.2519183509        0.7502455596
Zn            0.2519183509       -0.0015220173        0.7502455596
Zn            0.2601341350        0.2601341350        0.5070604684
S             0.1254976142        0.3759444690        0.8763836944
S             0.1274644920        0.1274644920        0.6252086933
S             0.3908665332        0.3908665332        0.6246409188
S             0.3759444690        0.1254976142        0.8763836944
Zn           -0.0045565155        0.5057394058       -0.0045565155
Zn           -0.0015220173        0.7502455596        0.2519183509
Zn            0.2601341350        0.5070604684        0.2601341350
Zn            0.2519183509        0.7502455596       -0.0015220173
S             0.1254976142        0.8763836944        0.3759444690
S             0.1274644920        0.6252086933        0.1274644920
S             0.3759444690        0.8763836944        0.1254976142
S             0.3908665332        0.6246409188        0.3908665332
Zn           -0.0014335052        0.5015491319        0.5015491319
Zn           -0.0081936971        0.7487689401        0.7487689401
Zn            0.2531152993        0.4992500609        0.7497469880
Zn            0.2531152993        0.7497469880        0.4992500609
S             0.1236194651        0.8740195426        0.8740195426
S             0.1255821939        0.6260386290        0.6260386290
S             0.3776289101        0.8730410357        0.6260741009
S             0.3776289101        0.6260741009        0.8730410357
Zn            0.5057394058       -0.0045565155       -0.0045565155
Zn            0.5070604684        0.2601341350        0.2601341350
Zn            0.7502455596       -0.0015220173        0.2519183509
Zn            0.7502455596        0.2519183509       -0.0015220173
S             0.6246409188        0.3908665332        0.3908665332
S             0.6252086933        0.1274644920        0.1274644920
S             0.8763836944        0.3759444690        0.1254976142
S             0.8763836944        0.1254976142        0.3759444690
Zn            0.5015491319       -0.0014335052        0.5015491319
Zn            0.4992500609        0.2531152993        0.7497469880
Zn            0.7487689401       -0.0081936971        0.7487689401
Zn            0.7497469880        0.2531152993        0.4992500609
S             0.6260741009        0.3776289101        0.8730410357
S             0.6260386290        0.1255821939        0.6260386290
S             0.8730410357        0.3776289101        0.6260741009
S             0.8740195426        0.1236194651        0.8740195426
Zn            0.5015491319        0.5015491319       -0.0014335052
Zn            0.4992500609        0.7497469880        0.2531152993
Zn            0.7497469880        0.4992500609        0.2531152993
Zn            0.7487689401        0.7487689401       -0.0081936971
S             0.6260741009        0.8730410357        0.3776289101
S             0.6260386290        0.6260386290        0.1255821939
S             0.8740195426        0.8740195426        0.1236194651
S             0.8730410357        0.6260741009        0.3776289101
Co            0.5365473360        0.5365473360        0.5365473360
Zn            0.5047014855        0.6993470786        0.6993470786
Zn            0.6993470786        0.5047014855        0.6993470786
Zn            0.6993470786        0.6993470786        0.5047014855
S             0.6196618871        0.8655878138        0.8655878138
S             0.8655878138        0.8655878138        0.6196618871
S             0.8655878138        0.6196618871        0.8655878138
End final coordinates

     General routines

     Parallel routines

     PAW routines

   This run was terminated on:  13:31: 6  10Jul2024

   JOB DONE.