     Program PWSCF v.7.2 starts on 10Jul2024 at 16:51:11

     Reading input from 2.Co_vac_in_ZnS.scf.qn2.in

     Current dimensions of program PWSCF are:
     Max number of different atomic species (ntypx) = 10
     Max number of k-points (npk) =  40000
     Max angular momentum in pseudopotentials (lmaxx) =  4
     file S.pbe-n-kjpaw_psl.1.0.0.UPF: wavefunction(s)  3S 3P renormalized
     file Zn.pbe-dnl-kjpaw_psl.1.0.0.UPF: wavefunction(s)  4S 3D renormalized
     file Co.pbe-spn-kjpaw_psl.0.3.1.UPF: wavefunction(s)  3P 3D renormalized

     K-points division:     npool     =       7
     R & G space division:  proc/nbgrp/npool/nimage =     112
     Subspace diagonalization in iterative solution of the eigenvalue problem:
     one sub-group per band group will be used

     Using Slab Decomposition

     bravais-lattice index     =            1
     lattice parameter (alat)  =      20.5686  a.u.
     unit-cell volume          =    8701.8437 (a.u.)^3
     number of atoms/cell      =           63
     number of atomic types    =            3
     number of electrons       =       577.00
     number of Kohn-Sham states=          347
     kinetic-energy cutoff     =     150.0000  Ry
     charge density cutoff     =     600.0000  Ry
     scf convergence threshold =      1.0E-08
     mixing beta               =       0.7000
     number of iterations used =            8  plain     mixing
     Exchange-correlation= SLA  PW   PBX  PBC
                           (   1   4   3   4   0   0   0)

     celldm(1)=  20.568554  celldm(2)=   0.000000  celldm(3)=   0.000000
     celldm(4)=   0.000000  celldm(5)=   0.000000  celldm(6)=   0.000000

     crystal axes: (cart. coord. in units of alat)
               a(1) = (   1.000000   0.000000   0.000000 )
               a(2) = (   0.000000   1.000000   0.000000 )
               a(3) = (   0.000000   0.000000   1.000000 )

     reciprocal axes: (cart. coord. in units 2 pi/alat)
               b(1) = (  1.000000  0.000000  0.000000 )
               b(2) = (  0.000000  1.000000  0.000000 )
               b(3) = (  0.000000  0.000000  1.000000 )

     PseudoPot. # 1 for S  read from file:
     /arf/home/amuhaymin/pseudo/S.pbe-n-kjpaw_psl.1.0.0.UPF
     MD5 check sum: fb45dfebcf3e72a4e1bd4a866ec2e262
     Pseudo is Projector augmented-wave + core cor, Zval =  6.0
     Generated using &quot;atomic&quot; code by A. Dal Corso  v.6.3
     Shape of augmentation charge: PSQ
     Using radial grid of 1151 points,  6 beta functions with:
                l(1) =   0
                l(2) =   0
                l(3) =   1
                l(4) =   1
                l(5) =   2
                l(6) =   2
     Q(r) pseudized with 0 coefficients

     PseudoPot. # 2 for Zn read from file:
     /arf/home/amuhaymin/pseudo/Zn.pbe-dnl-kjpaw_psl.1.0.0.UPF
     MD5 check sum: c608214d9520ac179f507641260889e3
     Pseudo is Projector augmented-wave + core cor, Zval = 12.0
     Generated using &quot;atomic&quot; code by A. Dal Corso  v.6.2.2
     Shape of augmentation charge: PSQ
     Using radial grid of 1201 points,  6 beta functions with:
                l(1) =   0
                l(2) =   0
                l(3) =   1
                l(4) =   1
                l(5) =   2
                l(6) =   2
     Q(r) pseudized with 0 coefficients

     PseudoPot. # 3 for Co read from file:
     /arf/home/amuhaymin/pseudo/Co.pbe-spn-kjpaw_psl.0.3.1.UPF
     MD5 check sum: b0a1ad65bf214e88c1f3d33b20c7d919
     Pseudo is Projector augmented-wave + core cor, Zval = 17.0
     Generated using &quot;atomic&quot; code by A. Dal Corso  v.6.2.2
     Shape of augmentation charge: PSQ
     Using radial grid of 1193 points,  6 beta functions with:
                l(1) =   0
                l(2) =   0
                l(3) =   1
                l(4) =   1
                l(5) =   2
                l(6) =   2
     Q(r) pseudized with 0 coefficients

     atomic species   valence    mass     pseudopotential
        S              6.00    32.06500     S ( 1.00)
        Zn            12.00    65.38000     Zn( 1.00)
        Co            17.00    63.54600     Co( 1.00)

     Starting magnetic structure
     atomic species   magnetization
        S            0.000
        Zn           0.000
        Co           0.059

      6 Sym. Ops. (no inversion) found

                                    s                        frac. trans.

      isym =  1     identity

 cryst.   s( 1) = (     1          0          0      )
                  (     0          1          0      )
                  (     0          0          1      )

 cart.    s( 1) = (  1.0000000  0.0000000  0.0000000 )
                  (  0.0000000  1.0000000  0.0000000 )
                  (  0.0000000  0.0000000  1.0000000 )

      isym =  2     120 deg rotation - cart. axis [-1,-1,-1]

[...]

      isym =  3     120 deg rotation - cart. axis [1,1,1]

[...]

      isym =  4     inv. 180 deg rotation - cart. axis [1,-1,0]

[...]

      isym =  6     inv. 180 deg rotation - cart. axis [0,1,-1]

 cryst.   s( 6) = (     1          0          0      )
                  (     0          0          1      )
                  (     0          1          0      )

 cart.    s( 6) = (  1.0000000  0.0000000  0.0000000 )
                  (  0.0000000  0.0000000  1.0000000 )
                  (  0.0000000  1.0000000  0.0000000 )

     point group C_3v (3m)
     there are  3 classes
     the character table:

       E     2C3   3s_v
A_1    1.00  1.00  1.00
A_2    1.00  1.00 -1.00
E      2.00 -1.00  0.00

     the symmetry operations in each class and the name of the first element:

     E        1
          identity
     2C3      2    3
          120 deg rotation - cart. axis [-1,-1,-1]
     3s_v     4    5    6
          inv. 180 deg rotation - cart. axis [1,-1,0]

   Cartesian axes

     site n.     atom                  positions (alat units)
         1           Zn  tau(   1) = (  -0.0000771  -0.0000771  -0.0000771  )
         2           Zn  tau(   2) = (   0.0024716   0.2526273   0.2526273  )
         3           Zn  tau(   3) = (   0.2526273   0.0024716   0.2526273  )
         4           Zn  tau(   4) = (   0.2526273   0.2526273   0.0024716  )
         5           S   tau(   5) = (   0.1291081   0.3779776   0.3779776  )
         6           S   tau(   6) = (   0.1260652   0.1260652   0.1260652  )
         7           S   tau(   7) = (   0.3779776   0.3779776   0.1291081  )
         8           S   tau(   8) = (   0.3779776   0.1291081   0.3779776  )
         9           Zn  tau(   9) = (  -0.0045565  -0.0045565   0.5057394  )
        10           Zn  tau(  10) = (  -0.0015220   0.2519184   0.7502456  )
        11           Zn  tau(  11) = (   0.2519184  -0.0015220   0.7502456  )
        12           Zn  tau(  12) = (   0.2601341   0.2601341   0.5070605  )
        13           S   tau(  13) = (   0.1254976   0.3759445   0.8763837  )
        14           S   tau(  14) = (   0.1274645   0.1274645   0.6252087  )
        15           S   tau(  15) = (   0.3908665   0.3908665   0.6246409  )
        16           S   tau(  16) = (   0.3759445   0.1254976   0.8763837  )
        17           Zn  tau(  17) = (  -0.0045565   0.5057394  -0.0045565  )
        18           Zn  tau(  18) = (  -0.0015220   0.7502456   0.2519184  )
        19           Zn  tau(  19) = (   0.2601341   0.5070605   0.2601341  )
        20           Zn  tau(  20) = (   0.2519184   0.7502456  -0.0015220  )
        21           S   tau(  21) = (   0.1254976   0.8763837   0.3759445  )
        22           S   tau(  22) = (   0.1274645   0.6252087   0.1274645  )
        23           S   tau(  23) = (   0.3759445   0.8763837   0.1254976  )
        24           S   tau(  24) = (   0.3908665   0.6246409   0.3908665  )
        25           Zn  tau(  25) = (  -0.0014335   0.5015491   0.5015491  )
        26           Zn  tau(  26) = (  -0.0081937   0.7487689   0.7487689  )
        27           Zn  tau(  27) = (   0.2531153   0.4992501   0.7497470  )
        28           Zn  tau(  28) = (   0.2531153   0.7497470   0.4992501  )
        29           S   tau(  29) = (   0.1236195   0.8740195   0.8740195  )
        30           S   tau(  30) = (   0.1255822   0.6260386   0.6260386  )
        31           S   tau(  31) = (   0.3776289   0.8730410   0.6260741  )
        32           S   tau(  32) = (   0.3776289   0.6260741   0.8730410  )
        33           Zn  tau(  33) = (   0.5057394  -0.0045565  -0.0045565  )
        34           Zn  tau(  34) = (   0.5070605   0.2601341   0.2601341  )
        35           Zn  tau(  35) = (   0.7502456  -0.0015220   0.2519184  )
        36           Zn  tau(  36) = (   0.7502456   0.2519184  -0.0015220  )
        37           S   tau(  37) = (   0.6246409   0.3908665   0.3908665  )
        38           S   tau(  38) = (   0.6252087   0.1274645   0.1274645  )
        39           S   tau(  39) = (   0.8763837   0.3759445   0.1254976  )
        40           S   tau(  40) = (   0.8763837   0.1254976   0.3759445  )
        41           Zn  tau(  41) = (   0.5015491  -0.0014335   0.5015491  )
        42           Zn  tau(  42) = (   0.4992501   0.2531153   0.7497470  )
        43           Zn  tau(  43) = (   0.7487689  -0.0081937   0.7487689  )
        44           Zn  tau(  44) = (   0.7497470   0.2531153   0.4992501  )
        45           S   tau(  45) = (   0.6260741   0.3776289   0.8730410  )
        46           S   tau(  46) = (   0.6260386   0.1255822   0.6260386  )
        47           S   tau(  47) = (   0.8730410   0.3776289   0.6260741  )
        48           S   tau(  48) = (   0.8740195   0.1236195   0.8740195  )
        49           Zn  tau(  49) = (   0.5015491   0.5015491  -0.0014335  )
        50           Zn  tau(  50) = (   0.4992501   0.7497470   0.2531153  )
        51           Zn  tau(  51) = (   0.7497470   0.4992501   0.2531153  )
        52           Zn  tau(  52) = (   0.7487689   0.7487689  -0.0081937  )
        53           S   tau(  53) = (   0.6260741   0.8730410   0.3776289  )
        54           S   tau(  54) = (   0.6260386   0.6260386   0.1255822  )
        55           S   tau(  55) = (   0.8740195   0.8740195   0.1236195  )
        56           S   tau(  56) = (   0.8730410   0.6260741   0.3776289  )
        57           Co  tau(  57) = (   0.5365473   0.5365473   0.5365473  )
        58           Zn  tau(  58) = (   0.5047015   0.6993471   0.6993471  )
        59           Zn  tau(  59) = (   0.6993471   0.5047015   0.6993471  )
        60           Zn  tau(  60) = (   0.6993471   0.6993471   0.5047015  )
        61           S   tau(  61) = (   0.6196619   0.8655878   0.8655878  )
        62           S   tau(  62) = (   0.8655878   0.8655878   0.6196619  )
        63           S   tau(  63) = (   0.8655878   0.6196619   0.8655878  )

   Crystallographic axes

     site n.     atom                  positions (cryst. coord.)
         1           Zn  tau(   1) = ( -0.0000771 -0.0000771 -0.0000771  )
         2           Zn  tau(   2) = (  0.0024716  0.2526273  0.2526273  )
         3           Zn  tau(   3) = (  0.2526273  0.0024716  0.2526273  )
         4           Zn  tau(   4) = (  0.2526273  0.2526273  0.0024716  )
[...]
     atom  28 (R=0.089)  charge= 10.1378  magn= -0.0004
     atom  29 (R=0.089)  charge=  3.9463  magn= -0.0001
     atom  30 (R=0.089)  charge=  3.9470  magn= -0.0003
     atom  31 (R=0.089)  charge=  3.9428  magn= -0.0063
     atom  32 (R=0.089)  charge=  3.9428  magn= -0.0063
     atom  33 (R=0.089)  charge= 10.1201  magn= -0.0000
     atom  34 (R=0.089)  charge= 10.1170  magn=  0.0025
     atom  35 (R=0.089)  charge= 10.1291  magn= -0.0012
     atom  36 (R=0.089)  charge= 10.1291  magn= -0.0012
     atom  37 (R=0.089)  charge=  3.9281  magn=  0.0066
     atom  38 (R=0.089)  charge=  3.9321  magn= -0.0004
     atom  39 (R=0.089)  charge=  3.9465  magn= -0.0001
     atom  40 (R=0.089)  charge=  3.9465  magn= -0.0001
     atom  41 (R=0.089)  charge= 10.1364  magn= -0.0001
     atom  42 (R=0.089)  charge= 10.1378  magn= -0.0004
     atom  43 (R=0.089)  charge= 10.1332  magn= -0.0000
     atom  44 (R=0.089)  charge= 10.1378  magn= -0.0004
     atom  45 (R=0.089)  charge=  3.9428  magn= -0.0063
     atom  46 (R=0.089)  charge=  3.9470  magn= -0.0003
     atom  47 (R=0.089)  charge=  3.9428  magn= -0.0063
     atom  48 (R=0.089)  charge=  3.9463  magn= -0.0001
     atom  49 (R=0.089)  charge= 10.1364  magn= -0.0001
     atom  50 (R=0.089)  charge= 10.1378  magn= -0.0004
     atom  51 (R=0.089)  charge= 10.1378  magn= -0.0004
     atom  52 (R=0.089)  charge= 10.1332  magn= -0.0000
     atom  53 (R=0.089)  charge=  3.9428  magn= -0.0063
     atom  54 (R=0.089)  charge=  3.9470  magn= -0.0003
     atom  55 (R=0.089)  charge=  3.9463  magn= -0.0001
     atom  56 (R=0.089)  charge=  3.9428  magn= -0.0063
     atom  57 (R=0.092)  charge= 15.3712  magn=  1.2034
     atom  58 (R=0.089)  charge= 10.0844  magn= -0.0225
     atom  59 (R=0.089)  charge= 10.0844  magn= -0.0225
     atom  60 (R=0.089)  charge= 10.0844  magn= -0.0225
     atom  61 (R=0.089)  charge=  3.9242  magn= -0.0004
     atom  62 (R=0.089)  charge=  3.9242  magn= -0.0004
     atom  63 (R=0.089)  charge=  3.9242  magn= -0.0004

     End of self-consistent calculation

 ------ SPIN UP ------------

          k = 0.0000 0.0000 0.0000 (269825 PWs)   bands (ev):

   -88.1967 -52.4690 -50.9924 -50.9924  -7.5199  -7.0126  -7.0126  -6.9986
    -6.9851  -6.9851  -6.9585  -6.7661  -6.7550  -6.7550  -6.7346  -6.6987
    -6.6826  -6.6826  -6.6726  -6.6726  -6.6321  -6.6321  -6.5495  -6.4933
    -6.4863  -6.4863  -6.4250  -6.4076  -6.4076  -6.3334  -6.3168  -6.2336
    -6.2336  -6.1092  -6.1092  -0.9096  -0.9066  -0.9066  -0.8883  -0.8665
    -0.8665  -0.8373  -0.8371  -0.8371  -0.8054  -0.8054  -0.7983  -0.7975
    -0.7975  -0.7875  -0.7846  -0.7846  -0.7727  -0.7727  -0.7645  -0.7563
    -0.7523  -0.7523  -0.7447  -0.7394  -0.7394  -0.7317  -0.7262  -0.7262
    -0.7138  -0.7114  -0.7114  -0.7112  -0.7001  -0.6903  -0.6903  -0.6863
    -0.6829  -0.6829  -0.6624  -0.6624  -0.6619  -0.6614  -0.6501  -0.6501
    -0.6442  -0.6442  -0.6369  -0.6226  -0.6226  -0.6153  -0.6153  -0.6146
    -0.6107  -0.5853  -0.5853  -0.5831  -0.5831  -0.5761  -0.5746  -0.5613
    -0.5613  -0.5500  -0.5500  -0.5462  -0.5316  -0.5316  -0.5285  -0.5192
    -0.5098  -0.5098  -0.4887  -0.4887  -0.4878  -0.4865  -0.4853  -0.4843
    -0.4843  -0.4752  -0.4752  -0.4709  -0.4636  -0.4576  -0.4576  -0.4498
    -0.4498  -0.4381  -0.4381  -0.4344  -0.4298  -0.4298  -0.4125  -0.4104
    -0.4104  -0.4091  -0.4041  -0.3991  -0.3991  -0.3926  -0.3816  -0.3816
    -0.3788  -0.3788  -0.3743  -0.3599  -0.3599  -0.3481  -0.3477  -0.3386
    -0.3386  -0.3202  -0.3192  -0.3192  -0.3056  -0.3056  -0.2961  -0.2891
    -0.2869  -0.2869  -0.2839  -0.2714  -0.2707  -0.2707  -0.2673  -0.2673
    -0.2535  -0.2507  -0.2507  -0.2353  -0.2194  -0.2194  -0.2059  -0.1903
    -0.1903  -0.1833  -0.1743  -0.1539  -0.1495  -0.1495  -0.1241  -0.1241
    -0.1011  -0.1011  -0.0974  -0.0659  -0.0166  -0.0166  -0.0062   0.0068
     0.0068   0.0265   0.0265   0.0590   0.0590   0.1207   0.3500   0.3500
     0.3616   0.4131   0.8932   0.8932   0.9142   0.9437   0.9753   0.9753
     1.0048   1.0800   1.1514   1.1514   1.4260   1.4260   1.5268   1.5455
     1.5455   1.5512   1.5512   1.5703   1.9716   1.9716   2.1057   2.2748
     2.6550   2.6550   2.7442   2.7442   2.7646   2.7646   2.7723   2.7856
     2.8064   2.8064   2.8348   2.8348   2.8461   2.8689   2.9480   2.9480
     2.9687   2.9860   2.9888   2.9888   3.0296   3.0296   3.0885   3.0895
     3.0895   3.0997   3.1007   3.1007   3.2079   3.3904   3.4209   3.4209
     3.5870   3.5870   3.5905   4.0196   4.0196   4.1633   4.1993   4.2149
     4.2149   4.2509   4.2685   4.2685   4.3198   4.3321   4.3321   4.4116
     4.4227   4.4227   4.5014   4.5152   4.5152   4.5199   4.5304   4.5304
     4.5725   4.5725   4.6162   4.6311   4.6354   4.6354   4.7555   4.8269
     4.8269   4.9591   5.2921   5.2921   5.4146   5.7065   5.7065   6.2223
     6.2223   7.6420   8.3139   8.3139   8.6327   8.6658   8.6658   8.7580
     8.8156   8.8156   8.9527   8.9894   9.4138   9.4138   9.4920   9.6245
     9.6245   9.8012   9.8012   9.8063   9.9137  10.0119  10.0119  10.0172
    10.0172  10.0973  10.1283  10.1283  10.1566  10.1566  10.1807  10.1827
    10.1827  10.1928  10.2314  10.5541  10.5834  10.5834  10.9101  11.0967
    11.0967  11.1637  11.1637  11.2056  11.2478  11.2478  11.2606  11.4881
    11.6604  11.6605  11.7033  11.7920  11.8480  11.8915  11.8918  11.9143
    11.9144  11.9665  11.9675

     occupation numbers
     1.0000   1.0000   1.0000   1.0000   1.0000   1.0000   1.0000   1.0000
     1.0000   1.0000   1.0000   1.0000   1.0000   1.0000   1.0000   1.0000
     1.0000   1.0000   1.0000   1.0000   1.0000   1.0000   1.0000   1.0000
     1.0000   1.0000   1.0000   1.0000   1.0000   1.0000   1.0000   1.0000
     1.0000   1.0000   1.0000   1.0000   1.0000   1.0000   1.0000   1.0000
     1.0000   1.0000   1.0000   1.0000   1.0000   1.0000   1.0000   1.0000
     1.0000   1.0000   1.0000   1.0000   1.0000   1.0000   1.0000   1.0000
     1.0000   1.0000   1.0000   1.0000   1.0000   1.0000   1.0000   1.0000
     1.0000   1.0000   1.0000   1.0000   1.0000   1.0000   1.0000   1.0000
     1.0000   1.0000   1.0000   1.0000   1.0000   1.0000   1.0000   1.0000
     1.0000   1.0000   1.0000   1.0000   1.0000   1.0000   1.0000   1.0000
     1.0000   1.0000   1.0000   1.0000   1.0000   1.0000   1.0000   1.0000
     1.0000   1.0000   1.0000   1.0000   1.0000   1.0000   1.0000   1.0000
     1.0000   1.0000   1.0000   1.0000   1.0000   1.0000   1.0000   1.0000
     1.0000   1.0000   1.0000   1.0000   1.0000   1.0000   1.0000   1.0000
     1.0000   1.0000   1.0000   1.0000   1.0000   1.0000   1.0000   1.0000
     1.0000   1.0000   1.0000   1.0000   1.0000   1.0000   1.0000   1.0000
     1.0000   1.0000   1.0000   1.0000   1.0000   1.0000   1.0000   1.0000
     1.0000   1.0000   1.0000   1.0000   1.0000   1.0000   1.0000   1.0000
     1.0000   1.0000   1.0000   1.0000   1.0000   1.0000   1.0000   1.0000
     1.0000   1.0000   1.0000   1.0000   1.0000   1.0000   1.0000   1.0000
     1.0000   1.0000   1.0000   1.0000   1.0000   1.0000   1.0000   1.0000
     1.0000   1.0000   1.0000   1.0000   1.0000   1.0000   1.0000   1.0000
     1.0000   1.0000   1.0000   1.0000   1.0000   1.0000   1.0000   1.0000
     1.0000   1.0000   1.0000   1.0000   1.0000   1.0000   1.0000   1.0000
     1.0000   1.0000   1.0000   1.0000   1.0000   1.0000   1.0000   1.0000
     1.0000   1.0000   1.0000   1.0000   1.0000   1.0000   1.0000   1.0000
     1.0000   1.0000   1.0000   1.0000   1.0000   1.0000   1.0000   1.0000
     1.0000   1.0000   1.0000   1.0000   1.0000   1.0000   1.0000   1.0000
     1.0000   1.0000   1.0000   1.0000   1.0000   1.0000   1.0000   1.0000
     1.0000   1.0000   1.0000   1.0000   1.0000   1.0000   1.0000   1.0000
     1.0000   1.0000   1.0000   1.0000   1.0000   1.0000   1.0000   1.0000
     1.0000   1.0000   1.0000   1.0000   1.0000   1.0000   1.0000   1.0000
     1.0000   1.0000   1.0000   1.0000   1.0000   1.0000   1.0000   1.0000
     1.0000   1.0000   1.0000   1.0000   1.0000   1.0000   1.0000   1.0000
     1.0000   1.0000   1.0000   1.0000   1.0000   1.0000   1.0000   1.0000
     1.0000   0.0000   0.0000   0.0000   0.0000   0.0000   0.0000   0.0000
     0.0000   0.0000   0.0000   0.0000   0.0000   0.0000   0.0000   0.0000
     0.0000   0.0000   0.0000   0.0000   0.0000   0.0000   0.0000   0.0000
     0.0000   0.0000   0.0000   0.0000   0.0000   0.0000   0.0000   0.0000
     0.0000   0.0000   0.0000   0.0000   0.0000   0.0000   0.0000   0.0000
     0.0000   0.0000   0.0000   0.0000   0.0000   0.0000   0.0000   0.0000
     0.0000   0.0000   0.0000   0.0000   0.0000   0.0000   0.0000   0.0000
     0.0000   0.0000   0.0000

[...]

          k =-0.5000-0.5000-0.5000 (269968 PWs)   bands (ev):

[...]

 ------ SPIN DOWN ----------

[...]

          k =-0.2500 0.0000 0.2500 (269929 PWs)   bands (ev):

[...]

          k = 0.2500-0.2500-0.5000 (269988 PWs)   bands (ev):

   -86.7614 -50.4237 -49.9267 -49.9267  -7.3566  -7.2635  -7.1116  -7.0930
    -7.0179  -6.9952  -6.9063  -6.7653  -6.7570  -6.7284  -6.7007  -6.6935
    -6.6665  -6.6329  -6.6270  -6.5803  -6.5586  -6.5356  -6.5171  -6.4898
    -6.4838  -6.4653  -6.4594  -6.4318  -6.4012  -6.3732  -6.3217  -6.2850
    -6.2658  -6.1466  -6.1353  -0.8892  -0.8790  -0.8784  -0.8401  -0.8343
    -0.8300  -0.8264  -0.8213  -0.8181  -0.8146  -0.8128  -0.8100  -0.8068
    -0.7996  -0.7933  -0.7917  -0.7814  -0.7798  -0.7765  -0.7742  -0.7724
    -0.7665  -0.7622  -0.7610  -0.7528  -0.7463  -0.7422  -0.7400  -0.7368
    -0.7307  -0.7272  -0.7205  -0.7167  -0.7056  -0.7022  -0.6976  -0.6924
    -0.6848  -0.6770  -0.6736  -0.6686  -0.6663  -0.6627  -0.6588  -0.6539
    -0.6479  -0.6422  -0.6377  -0.6363  -0.6312  -0.6278  -0.6262  -0.6183
    -0.6136  -0.6076  -0.6034  -0.6020  -0.5960  -0.5834  -0.5795  -0.5752
    -0.5735  -0.5696  -0.5625  -0.5559  -0.5516  -0.5401  -0.5309  -0.5240
    -0.5211  -0.5181  -0.5133  -0.5039  -0.5018  -0.4936  -0.4904  -0.4834
    -0.4783  -0.4726  -0.4715  -0.4654  -0.4629  -0.4622  -0.4554  -0.4465
    -0.4413  -0.4388  -0.4348  -0.4292  -0.4150  -0.4136  -0.4084  -0.4045
    -0.3974  -0.3957  -0.3885  -0.3881  -0.3838  -0.3745  -0.3738  -0.3722
    -0.3707  -0.3628  -0.3579  -0.3497  -0.3466  -0.3390  -0.3343  -0.3312
    -0.3236  -0.3186  -0.3153  -0.3107  -0.3036  -0.3009  -0.2961  -0.2903
    -0.2843  -0.2805  -0.2769  -0.2739  -0.2695  -0.2639  -0.2600  -0.2574
    -0.2549  -0.2471  -0.2406  -0.2313  -0.2244  -0.2139  -0.2103  -0.2056
    -0.1921  -0.1835  -0.1810  -0.1738  -0.1578  -0.1566  -0.1436  -0.1336
    -0.1069  -0.1012  -0.0793  -0.0754  -0.0587  -0.0547  -0.0367  -0.0212
    -0.0200   0.0008   0.0048   0.0364   0.0400   0.0654   0.5881   0.6488
     0.6776   0.7807   0.8426   0.8719   0.8992   0.9224   0.9662   0.9813
     1.0112   1.0163   1.0526   1.0820   1.1106   1.1875   1.2788   1.3804
     1.4102   1.5110   1.5836   1.6445   1.6721   1.8454   1.8841   2.0517
     2.2383   2.5533   2.5843   2.6012   2.6218   2.6836   2.7188   2.7414
     2.7799   2.8146   2.8436   2.9004   2.9162   2.9580   2.9975   3.0444
     3.2200   3.2764   3.3654   3.3749   3.4098   3.4490   3.4727   3.4972
     3.5105   3.5302   3.5737   3.5883   3.6138   3.6385   3.6744   3.6807
     3.6886   3.7336   3.7465   3.7649   3.7995   3.8245   3.8432   3.8845
     3.9155   3.9504   3.9836   4.0363   4.0830   4.1223   4.1509   4.1950
     4.2590   4.2734   4.3076   4.3335   4.3789   4.4182   4.4615   4.4844
     4.5370   4.6232   4.7089   4.7715   4.8528   4.8874   4.9319   4.9568
     5.0035   5.0507   5.0744   5.1350   6.0689   6.1051   6.8804   6.9126
     7.0408   8.1464   8.1831   8.6770   8.9110   8.9455   9.0093   9.0539
     9.2121   9.3039   9.3860   9.4075   9.4675   9.5251   9.5650   9.5899
     9.6200   9.6420   9.6851   9.7229   9.7811   9.7933   9.8462   9.8569
     9.9176   9.9472   9.9683  10.0028  10.0256  10.0838  10.0977  10.1862
    10.2743  10.3568  10.3845  10.4603  10.5416  10.6335  10.6731  10.7163
    10.7810  10.8691  11.0108  11.0710  11.0767  11.1768  11.2718  11.3543
    11.3801  11.4276  11.4619  11.4846  11.5020  11.5267  11.5705  11.6183
    11.6490  11.6882  11.7002

     occupation numbers
     1.0000   1.0000   1.0000   1.0000   1.0000   1.0000   1.0000   1.0000
     1.0000   1.0000   1.0000   1.0000   1.0000   1.0000   1.0000   1.0000
     1.0000   1.0000   1.0000   1.0000   1.0000   1.0000   1.0000   1.0000
     1.0000   1.0000   1.0000   1.0000   1.0000   1.0000   1.0000   1.0000
     1.0000   1.0000   1.0000   1.0000   1.0000   1.0000   1.0000   1.0000
     1.0000   1.0000   1.0000   1.0000   1.0000   1.0000   1.0000   1.0000
     1.0000   1.0000   1.0000   1.0000   1.0000   1.0000   1.0000   1.0000
     1.0000   1.0000   1.0000   1.0000   1.0000   1.0000   1.0000   1.0000
     1.0000   1.0000   1.0000   1.0000   1.0000   1.0000   1.0000   1.0000
     1.0000   1.0000   1.0000   1.0000   1.0000   1.0000   1.0000   1.0000
     1.0000   1.0000   1.0000   1.0000   1.0000   1.0000   1.0000   1.0000
     1.0000   1.0000   1.0000   1.0000   1.0000   1.0000   1.0000   1.0000
     1.0000   1.0000   1.0000   1.0000   1.0000   1.0000   1.0000   1.0000
     1.0000   1.0000   1.0000   1.0000   1.0000   1.0000   1.0000   1.0000
     1.0000   1.0000   1.0000   1.0000   1.0000   1.0000   1.0000   1.0000
     1.0000   1.0000   1.0000   1.0000   1.0000   1.0000   1.0000   1.0000
     1.0000   1.0000   1.0000   1.0000   1.0000   1.0000   1.0000   1.0000
     1.0000   1.0000   1.0000   1.0000   1.0000   1.0000   1.0000   1.0000
     1.0000   1.0000   1.0000   1.0000   1.0000   1.0000   1.0000   1.0000
     1.0000   1.0000   1.0000   1.0000   1.0000   1.0000   1.0000   1.0000
     1.0000   1.0000   1.0000   1.0000   1.0000   1.0000   1.0000   1.0000
     1.0000   1.0000   1.0000   1.0000   1.0000   1.0000   1.0000   1.0000
     1.0000   1.0000   1.0000   1.0000   1.0000   1.0000   1.0000   1.0000
     1.0000   1.0000   1.0000   1.0000   1.0000   1.0000   1.0000   1.0000
     1.0000   1.0000   1.0000   1.0000   1.0000   1.0000   1.0000   1.0000
     1.0000   1.0000   1.0000   1.0000   1.0000   1.0000   1.0000   1.0000
     1.0000   1.0000   1.0000   1.0000   1.0000   1.0000   1.0000   1.0000
     1.0000   1.0000   1.0000   1.0000   1.0000   1.0000   1.0000   1.0000
     1.0000   1.0000   1.0000   1.0000   1.0000   1.0000   1.0000   1.0000
     1.0000   1.0000   1.0000   1.0000   1.0000   1.0000   1.0000   1.0000
     1.0000   1.0000   1.0000   1.0000   1.0000   1.0000   1.0000   1.0000
     1.0000   1.0000   1.0000   1.0000   1.0000   1.0000   1.0000   1.0000
     1.0000   1.0000   1.0000   1.0000   1.0000   1.0000   1.0000   1.0000
     1.0000   1.0000   1.0000   1.0000   1.0000   1.0000   1.0000   1.0000
     1.0000   1.0000   1.0000   1.0000   1.0000   1.0000   1.0000   1.0000
     1.0000   1.0000   1.0000   1.0000   1.0000   1.0000   1.0000   1.0000
     0.0000   0.0000   0.0000   0.0000   0.0000   0.0000   0.0000   0.0000
     0.0000   0.0000   0.0000   0.0000   0.0000   0.0000   0.0000   0.0000
     0.0000   0.0000   0.0000   0.0000   0.0000   0.0000   0.0000   0.0000
     0.0000   0.0000   0.0000   0.0000   0.0000   0.0000   0.0000   0.0000
     0.0000   0.0000   0.0000   0.0000   0.0000   0.0000   0.0000   0.0000
     0.0000   0.0000   0.0000   0.0000   0.0000   0.0000   0.0000   0.0000
     0.0000   0.0000   0.0000   0.0000   0.0000   0.0000   0.0000   0.0000
     0.0000   0.0000   0.0000

     the Fermi energy is     6.9551 ev

!    total energy              =   -9989.70543568 Ry
     total all-electron energy =   -138895.326226 Ry
     estimated scf accuracy    <          3.0E-09 Ry
     smearing contrib. (-TS)   =      -0.00000027 Ry
     internal energy E=F+TS    =   -9989.70543541 Ry

     The total energy is F=E-TS. E is the sum of the following terms:
     one-electron contribution =   -2996.95808388 Ry
     hartree contribution      =    2067.94845262 Ry
     xc contribution           =   -1653.76633571 Ry
     ewald contribution        =   -2931.20861074 Ry
     one-center paw contrib.   =   -4475.72085771 Ry
      -> PAW hartree energy AE =     123.28303263 Ry
      -> PAW hartree energy PS =    -122.64121648 Ry
      -> PAW xc energy AE      =    -143.21209708 Ry
      -> PAW xc energy PS      =      47.15046348 Ry
      -> total E_H with PAW    =    2068.59026877 Ry
      -> total E_XC with PAW   =   -1749.82796931 Ry

     total magnetization       =     1.00 Bohr mag/cell
     absolute magnetization    =     1.68 Bohr mag/cell

     convergence has been achieved in  22 iterations

     Writing all to output data dir ./out/Co_vac_qn2.save/

     General routines

     Parallel routines

     PAW routines

   This run was terminated on:  16:59:45  10Jul2024

   JOB DONE.