     Program PWSCF v.7.2 starts on 18Jul2024 at 17:59:10

     Reading input from 1.Cu_vac_in_ZnS.scf.qn1.unrlxd.U6.in

     Current dimensions of program PWSCF are:
     Max number of different atomic species (ntypx) = 10
     Max number of k-points (npk) =  40000
     Max angular momentum in pseudopotentials (lmaxx) =  4
     file S.pbe-n-kjpaw_psl.1.0.0.UPF: wavefunction(s)  3S 3P renormalized
     file Zn.pbe-dnl-kjpaw_psl.1.0.0.UPF: wavefunction(s)  4S 3D renormalized
     file Cu.pbe-spn-kjpaw_psl.1.0.0.UPF: wavefunction(s)  4S 3P 3D renormalized

     K-points division:     npool     =      13
     R & G space division:  proc/nbgrp/npool/nimage =     112
     Subspace diagonalization in iterative solution of the eigenvalue problem:
     one sub-group per band group will be used

     Using Slab Decomposition

     bravais-lattice index     =            1
     lattice parameter (alat)  =      20.5686  a.u.
     unit-cell volume          =    8701.8437 (a.u.)^3
     number of atoms/cell      =           63
     number of atomic types    =            3
     number of electrons       =       578.00
     number of Kohn-Sham states=          347
     kinetic-energy cutoff     =     150.0000  Ry
     charge density cutoff     =     600.0000  Ry
     scf convergence threshold =      1.0E-08
     mixing beta               =       0.7000
     number of iterations used =            8  plain     mixing
     Exchange-correlation= SLA  PW   PBX  PBC
                           (   1   4   3   4   0   0   0)
     Hubbard projectors: ortho-atomic
     Hubbard parameters of DFT+U (Dudarev formulation) in eV:
     U(Zn-3d) =  7.0000
     U(Cu-3d) =  6.0000

     Internal variables: lda_plus_u = T, lda_plus_u_kind = 0

     celldm(1)=  20.568554  celldm(2)=   0.000000  celldm(3)=   0.000000
     celldm(4)=   0.000000  celldm(5)=   0.000000  celldm(6)=   0.000000

     crystal axes: (cart. coord. in units of alat)
               a(1) = (   1.000000   0.000000   0.000000 )
               a(2) = (   0.000000   1.000000   0.000000 )
               a(3) = (   0.000000   0.000000   1.000000 )

     reciprocal axes: (cart. coord. in units 2 pi/alat)
               b(1) = (  1.000000  0.000000  0.000000 )
               b(2) = (  0.000000  1.000000  0.000000 )
               b(3) = (  0.000000  0.000000  1.000000 )

     PseudoPot. # 1 for S  read from file:
     /arf/home/amuhaymin/pseudo/S.pbe-n-kjpaw_psl.1.0.0.UPF
     MD5 check sum: fb45dfebcf3e72a4e1bd4a866ec2e262
     Pseudo is Projector augmented-wave + core cor, Zval =  6.0
     Generated using &quot;atomic&quot; code by A. Dal Corso  v.6.3
     Shape of augmentation charge: PSQ
     Using radial grid of 1151 points,  6 beta functions with:
                l(1) =   0
                l(2) =   0
                l(3) =   1
                l(4) =   1
                l(5) =   2
                l(6) =   2
     Q(r) pseudized with 0 coefficients

     PseudoPot. # 2 for Zn read from file:
     /arf/home/amuhaymin/pseudo/Zn.pbe-dnl-kjpaw_psl.1.0.0.UPF
     MD5 check sum: c608214d9520ac179f507641260889e3
     Pseudo is Projector augmented-wave + core cor, Zval = 12.0
     Generated using &quot;atomic&quot; code by A. Dal Corso  v.6.2.2
     Shape of augmentation charge: PSQ
     Using radial grid of 1201 points,  6 beta functions with:
                l(1) =   0
                l(2) =   0
                l(3) =   1
                l(4) =   1
                l(5) =   2
                l(6) =   2
     Q(r) pseudized with 0 coefficients

     PseudoPot. # 3 for Cu read from file:
     /arf/home/amuhaymin/pseudo/Cu.pbe-spn-kjpaw_psl.1.0.0.UPF
     MD5 check sum: e7cbaad2f97193e5fe23251a619a52b0
     Pseudo is Projector augmented-wave + core cor, Zval = 19.0
     Generated using &quot;atomic&quot; code by A. Dal Corso  v.6.3
     Shape of augmentation charge: PSQ
     Using radial grid of 1199 points,  6 beta functions with:
                l(1) =   0
                l(2) =   0
                l(3) =   1
                l(4) =   1
                l(5) =   2
                l(6) =   2
     Q(r) pseudized with 0 coefficients

     atomic species   valence    mass     pseudopotential
        S              6.00    32.06500     S ( 1.00)
        Zn            12.00    65.38000     Zn( 1.00)
        Cu            19.00    63.54600     Cu( 1.00)

     Starting magnetic structure
     atomic species   magnetization
        S            0.000
        Zn           0.000
        Cu           0.000

      6 Sym. Ops. (no inversion) found

                                    s                        frac. trans.

      isym =  1     identity

 cryst.   s( 1) = (     1          0          0      )
                  (     0          1          0      )
                  (     0          0          1      )

 cart.    s( 1) = (  1.0000000  0.0000000  0.0000000 )
                  (  0.0000000  1.0000000  0.0000000 )
                  (  0.0000000  0.0000000  1.0000000 )

      isym =  2     120 deg rotation - cart. axis [-1,-1,-1]

[...]

      isym =  3     120 deg rotation - cart. axis [1,1,1]

[...]

      isym =  4     inv. 180 deg rotation - cart. axis [1,-1,0]

[...]

      isym =  6     inv. 180 deg rotation - cart. axis [0,1,-1]

 cryst.   s( 6) = (     1          0          0      )
                  (     0          0          1      )
                  (     0          1          0      )

 cart.    s( 6) = (  1.0000000  0.0000000  0.0000000 )
                  (  0.0000000  0.0000000  1.0000000 )
                  (  0.0000000  1.0000000  0.0000000 )

     point group C_3v (3m)
     there are  3 classes
     the character table:

       E     2C3   3s_v
A_1    1.00  1.00  1.00
A_2    1.00  1.00 -1.00
E      2.00 -1.00  0.00

     the symmetry operations in each class and the name of the first element:

     E        1
          identity
     2C3      2    3
          120 deg rotation - cart. axis [-1,-1,-1]
     3s_v     4    5    6
          inv. 180 deg rotation - cart. axis [1,-1,0]

   Cartesian axes

     site n.     atom                  positions (alat units)
         1           Zn  tau(   1) = (   0.0000000   0.0000000   0.0000000  )
         2           Zn  tau(   2) = (   0.0000000   0.2500000   0.2500000  )
         3           Zn  tau(   3) = (   0.2500000   0.0000000   0.2500000  )
         4           Zn  tau(   4) = (   0.2500000   0.2500000   0.0000000  )
         5           S   tau(   5) = (   0.1250000   0.3750000   0.3750000  )
         6           S   tau(   6) = (   0.1250000   0.1250000   0.1250000  )
         7           S   tau(   7) = (   0.3750000   0.3750000   0.1250000  )
         8           S   tau(   8) = (   0.3750000   0.1250000   0.3750000  )
         9           Zn  tau(   9) = (   0.0000000   0.0000000   0.5000000  )
        10           Zn  tau(  10) = (   0.0000000   0.2500000   0.7500000  )
        11           Zn  tau(  11) = (   0.2500000   0.0000000   0.7500000  )
        12           Zn  tau(  12) = (   0.2500000   0.2500000   0.5000000  )
        13           S   tau(  13) = (   0.1250000   0.3750000   0.8750000  )
        14           S   tau(  14) = (   0.1250000   0.1250000   0.6250000  )
        15           S   tau(  15) = (   0.3750000   0.3750000   0.6250000  )
        16           S   tau(  16) = (   0.3750000   0.1250000   0.8750000  )
        17           Zn  tau(  17) = (   0.0000000   0.5000000   0.0000000  )
        18           Zn  tau(  18) = (   0.0000000   0.7500000   0.2500000  )
        19           Zn  tau(  19) = (   0.2500000   0.5000000   0.2500000  )
        20           Zn  tau(  20) = (   0.2500000   0.7500000   0.0000000  )
        21           S   tau(  21) = (   0.1250000   0.8750000   0.3750000  )
        22           S   tau(  22) = (   0.1250000   0.6250000   0.1250000  )
        23           S   tau(  23) = (   0.3750000   0.8750000   0.1250000  )
        24           S   tau(  24) = (   0.3750000   0.6250000   0.3750000  )
        25           Zn  tau(  25) = (   0.0000000   0.5000000   0.5000000  )
        26           Zn  tau(  26) = (   0.0000000   0.7500000   0.7500000  )
        27           Zn  tau(  27) = (   0.2500000   0.5000000   0.7500000  )
        28           Zn  tau(  28) = (   0.2500000   0.7500000   0.5000000  )
        29           S   tau(  29) = (   0.1250000   0.8750000   0.8750000  )
        30           S   tau(  30) = (   0.1250000   0.6250000   0.6250000  )
        31           S   tau(  31) = (   0.3750000   0.8750000   0.6250000  )
        32           S   tau(  32) = (   0.3750000   0.6250000   0.8750000  )
        33           Zn  tau(  33) = (   0.5000000   0.0000000   0.0000000  )
        34           Zn  tau(  34) = (   0.5000000   0.2500000   0.2500000  )
        35           Zn  tau(  35) = (   0.7500000   0.0000000   0.2500000  )
        36           Zn  tau(  36) = (   0.7500000   0.2500000   0.0000000  )
        37           S   tau(  37) = (   0.6250000   0.3750000   0.3750000  )
        38           S   tau(  38) = (   0.6250000   0.1250000   0.1250000  )
        39           S   tau(  39) = (   0.8750000   0.3750000   0.1250000  )
        40           S   tau(  40) = (   0.8750000   0.1250000   0.3750000  )
        41           Zn  tau(  41) = (   0.5000000   0.0000000   0.5000000  )
        42           Zn  tau(  42) = (   0.5000000   0.2500000   0.7500000  )
        43           Zn  tau(  43) = (   0.7500000   0.0000000   0.7500000  )
        44           Zn  tau(  44) = (   0.7500000   0.2500000   0.5000000  )
        45           S   tau(  45) = (   0.6250000   0.3750000   0.8750000  )
        46           S   tau(  46) = (   0.6250000   0.1250000   0.6250000  )
        47           S   tau(  47) = (   0.8750000   0.3750000   0.6250000  )
        48           S   tau(  48) = (   0.8750000   0.1250000   0.8750000  )
        49           Zn  tau(  49) = (   0.5000000   0.5000000   0.0000000  )
        50           Zn  tau(  50) = (   0.5000000   0.7500000   0.2500000  )
        51           Zn  tau(  51) = (   0.7500000   0.5000000   0.2500000  )
        52           Zn  tau(  52) = (   0.7500000   0.7500000   0.0000000  )
        53           S   tau(  53) = (   0.6250000   0.8750000   0.3750000  )
        54           S   tau(  54) = (   0.6250000   0.6250000   0.1250000  )
        55           S   tau(  55) = (   0.8750000   0.8750000   0.1250000  )
        56           S   tau(  56) = (   0.8750000   0.6250000   0.3750000  )
        57           Cu  tau(  57) = (   0.5000000   0.5000000   0.5000000  )
        58           Zn  tau(  58) = (   0.5000000   0.7500000   0.7500000  )
        59           Zn  tau(  59) = (   0.7500000   0.5000000   0.7500000  )
        60           Zn  tau(  60) = (   0.7500000   0.7500000   0.5000000  )
        61           S   tau(  61) = (   0.6250000   0.8750000   0.8750000  )
        62           S   tau(  62) = (   0.8750000   0.8750000   0.6250000  )
        63           S   tau(  63) = (   0.8750000   0.6250000   0.8750000  )

   Crystallographic axes

     site n.     atom                  positions (cryst. coord.)
         1           Zn  tau(   1) = (  0.0000000  0.0000000  0.0000000  )
[...]
     atom  30 (R=0.089)  charge=  4.0015  magn=  0.0000
     atom  31 (R=0.089)  charge=  3.9982  magn=  0.0000
     atom  32 (R=0.089)  charge=  3.9982  magn=  0.0000
     atom  33 (R=0.089)  charge= 10.1800  magn=  0.0000
     atom  34 (R=0.089)  charge= 10.1778  magn= -0.0000
     atom  35 (R=0.089)  charge= 10.1785  magn=  0.0000
     atom  36 (R=0.089)  charge= 10.1785  magn=  0.0000
     atom  37 (R=0.089)  charge=  3.9827  magn=  0.0000
     atom  38 (R=0.089)  charge=  4.0022  magn=  0.0000
     atom  39 (R=0.089)  charge=  4.0025  magn= -0.0000
     atom  40 (R=0.089)  charge=  4.0025  magn= -0.0000
     atom  41 (R=0.089)  charge= 10.1765  magn= -0.0000
     atom  42 (R=0.089)  charge= 10.1775  magn= -0.0000
     atom  43 (R=0.089)  charge= 10.1771  magn= -0.0000
     atom  44 (R=0.089)  charge= 10.1775  magn= -0.0000
     atom  45 (R=0.089)  charge=  3.9982  magn=  0.0000
     atom  46 (R=0.089)  charge=  4.0015  magn=  0.0000
     atom  47 (R=0.089)  charge=  3.9982  magn=  0.0000
     atom  48 (R=0.089)  charge=  4.0022  magn= -0.0000
     atom  49 (R=0.089)  charge= 10.1765  magn= -0.0000
     atom  50 (R=0.089)  charge= 10.1775  magn= -0.0000
     atom  51 (R=0.089)  charge= 10.1775  magn= -0.0000
     atom  52 (R=0.089)  charge= 10.1771  magn= -0.0000
     atom  53 (R=0.089)  charge=  3.9982  magn=  0.0000
     atom  54 (R=0.089)  charge=  4.0015  magn=  0.0000
     atom  55 (R=0.089)  charge=  4.0022  magn= -0.0000
     atom  56 (R=0.089)  charge=  3.9982  magn=  0.0000
     atom  57 (R=0.089)  charge= 17.4150  magn=  0.0000
     atom  58 (R=0.089)  charge= 10.1412  magn= -0.0000
     atom  59 (R=0.089)  charge= 10.1412  magn= -0.0000
     atom  60 (R=0.089)  charge= 10.1412  magn= -0.0000
     atom  61 (R=0.089)  charge=  3.9992  magn= -0.0000
     atom  62 (R=0.089)  charge=  3.9992  magn= -0.0000
     atom  63 (R=0.089)  charge=  3.9992  magn= -0.0000

     End of self-consistent calculation

 ------ SPIN UP ------------

          k = 0.0000 0.0000 0.0000 (269825 PWs)   bands (ev):

  -103.5421 -60.9818 -60.9591 -60.9591  -7.6357  -7.2178  -7.2178  -7.2115
    -7.2115  -7.2055  -7.1718  -7.0191  -7.0191  -7.0187  -7.0057  -6.9831
    -6.9805  -6.9805  -6.9789  -6.9789  -6.9773  -6.9773  -6.9773  -6.8766
    -6.8766  -6.8583  -6.7976  -6.7954  -6.7954  -6.7598  -6.7571  -6.7571
    -6.4649  -6.3322  -6.3322  -3.8763  -3.8750  -3.8750  -3.8360  -3.8353
    -3.8353  -3.8336  -3.8336  -3.8177  -3.8177  -3.8118  -3.8097  -3.8097
    -3.8078  -3.7964  -3.7963  -3.7963  -3.7929  -3.7929  -3.7894  -3.7875
    -3.7875  -3.7802  -3.7784  -3.7784  -3.7760  -3.7715  -3.7691  -3.7691
    -3.7642  -3.7636  -3.7634  -3.7634  -3.7489  -3.7489  -3.7488  -3.7372
    -3.7351  -3.7351  -3.7281  -3.7281  -3.7252  -3.7252  -3.7228  -3.7188
    -3.7188  -3.7141  -3.7103  -3.7103  -3.7026  -3.7005  -3.7005  -3.6959
    -3.6907  -3.6875  -3.6875  -3.6821  -3.6821  -3.6808  -3.6774  -3.6719
    -3.6719  -3.6558  -3.6547  -3.6500  -3.6495  -3.6495  -3.6462  -3.6462
    -3.6391  -3.6391  -3.6370  -3.6330  -3.6330  -3.6298  -3.6298  -3.6294
    -3.6223  -3.6207  -3.6207  -3.6203  -3.6136  -3.6136  -3.6132  -3.6132
    -3.6124  -3.6124  -3.6107  -3.6057  -3.5902  -3.5855  -3.5855  -3.5816
    -3.5816  -3.5699  -3.5679  -3.5679  -3.5678  -3.5511  -3.5511  -3.5456
    -3.5352  -3.5352  -3.5338  -3.5326  -3.5232  -3.5232  -3.5079  -3.5079
    -3.5048  -3.4929  -3.4869  -3.4869  -3.4857  -3.4857  -3.4826  -3.4826
    -3.4818  -3.4673  -3.4648  -3.4648  -3.4607  -3.4451  -3.4451  -3.4219
    -3.4146  -3.4146  -3.4069  -3.3996  -3.3976  -3.3976  -3.2869  -3.2869
    -3.2439  -3.2413  -3.2413  -3.2258  -3.2201  -3.2201  -3.2132  -3.2025
    -3.1976  -3.1976  -3.1425  -3.1425  -3.0949  -3.0405  -3.0184  -3.0184
    -2.9682  -2.9051  -2.9051  -2.8758  -2.8758  -2.8701   0.2158   0.2352
     0.2611   0.2611   0.5888   0.6008   0.6008   0.8110   0.8110   0.8208
     0.8872   0.8872   0.9010   1.0813   1.1788   1.1788   1.2138   1.2138
     1.2563   1.2653   1.2653   1.2675   1.4774   1.4774   1.8729   2.2563
     2.2563   2.3324   2.4337   2.4337   2.4853   2.4995   2.4995   2.5187
     2.5316   2.5316   2.6479   2.6655   2.6655   2.6687   2.6687   2.6733
     2.6752   2.6798   2.6798   2.7207   2.7207   2.7363   2.7767   2.8115
     2.8115   2.9460   2.9764   2.9764   3.0149   3.0749   3.0749   3.1626
     3.2327   3.2381   3.2381   3.3928   3.3928   3.5365   3.5365   3.7513
     3.9969   4.0024   4.0024   4.0260   4.0380   4.0380   4.1024   4.1024
     4.1109   4.2035   4.2311   4.2311   4.2995   4.3027   4.3027   4.3028
     4.3046   4.3046   4.3132   4.3135   4.3135   4.3163   4.3299   4.3299
     4.5074   4.5975   4.5975   4.9108   4.9108   5.1186   5.4015   5.4015
     6.5446   7.7800   8.6060   8.6060   8.6922   8.7509   8.8110   8.8110
     8.9324   8.9324   9.0953   9.4761   9.4791   9.4791   9.5391   9.8317
     9.8317   9.9149   9.9384   9.9384   9.9610   9.9821   9.9821   9.9855
     9.9959   9.9959  10.1544  10.1544  10.1559  10.1775  10.1775  10.2085
    10.2085  10.2339  10.3333  10.6352  10.6352  10.7016  11.0162  11.1119
    11.1119  11.1472  11.1472  11.2834  11.3182  11.3182  11.3316  11.6499
    11.6499  11.6841  11.8161  11.8447  11.8447  11.8449  11.9904  11.9904
    12.0005  12.0062  12.0062

     occupation numbers
     1.0000   1.0000   1.0000   1.0000   1.0000   1.0000   1.0000   1.0000
     1.0000   1.0000   1.0000   1.0000   1.0000   1.0000   1.0000   1.0000
     1.0000   1.0000   1.0000   1.0000   1.0000   1.0000   1.0000   1.0000
     1.0000   1.0000   1.0000   1.0000   1.0000   1.0000   1.0000   1.0000
     1.0000   1.0000   1.0000   1.0000   1.0000   1.0000   1.0000   1.0000
     1.0000   1.0000   1.0000   1.0000   1.0000   1.0000   1.0000   1.0000
     1.0000   1.0000   1.0000   1.0000   1.0000   1.0000   1.0000   1.0000
     1.0000   1.0000   1.0000   1.0000   1.0000   1.0000   1.0000   1.0000
     1.0000   1.0000   1.0000   1.0000   1.0000   1.0000   1.0000   1.0000
     1.0000   1.0000   1.0000   1.0000   1.0000   1.0000   1.0000   1.0000
     1.0000   1.0000   1.0000   1.0000   1.0000   1.0000   1.0000   1.0000
     1.0000   1.0000   1.0000   1.0000   1.0000   1.0000   1.0000   1.0000
     1.0000   1.0000   1.0000   1.0000   1.0000   1.0000   1.0000   1.0000
     1.0000   1.0000   1.0000   1.0000   1.0000   1.0000   1.0000   1.0000
     1.0000   1.0000   1.0000   1.0000   1.0000   1.0000   1.0000   1.0000
     1.0000   1.0000   1.0000   1.0000   1.0000   1.0000   1.0000   1.0000
     1.0000   1.0000   1.0000   1.0000   1.0000   1.0000   1.0000   1.0000
     1.0000   1.0000   1.0000   1.0000   1.0000   1.0000   1.0000   1.0000
     1.0000   1.0000   1.0000   1.0000   1.0000   1.0000   1.0000   1.0000
     1.0000   1.0000   1.0000   1.0000   1.0000   1.0000   1.0000   1.0000
     1.0000   1.0000   1.0000   1.0000   1.0000   1.0000   1.0000   1.0000
     1.0000   1.0000   1.0000   1.0000   1.0000   1.0000   1.0000   1.0000
     1.0000   1.0000   1.0000   1.0000   1.0000   1.0000   1.0000   1.0000
     1.0000   1.0000   1.0000   1.0000   1.0000   1.0000   1.0000   1.0000
     1.0000   1.0000   1.0000   1.0000   1.0000   1.0000   1.0000   1.0000
     1.0000   1.0000   1.0000   1.0000   1.0000   1.0000   1.0000   1.0000
     1.0000   1.0000   1.0000   1.0000   1.0000   1.0000   1.0000   1.0000
     1.0000   1.0000   1.0000   1.0000   1.0000   1.0000   1.0000   1.0000
     1.0000   1.0000   1.0000   1.0000   1.0000   1.0000   1.0000   1.0000
     1.0000   1.0000   1.0000   1.0000   1.0000   1.0000   1.0000   1.0000
     1.0000   1.0000   1.0000   1.0000   1.0000   1.0000   1.0000   1.0000
     1.0000   1.0000   1.0000   1.0000   1.0000   1.0000   1.0000   1.0000
     1.0000   1.0000   1.0000   1.0000   1.0000   1.0000   1.0000   1.0000
     1.0000   1.0000   1.0000   1.0000   1.0000   1.0000   1.0000   1.0000
     1.0000   1.0000   1.0000   1.0000   1.0000   1.0000   1.0000   1.0000
     1.0000   1.0000   1.0000   1.0000   1.0000   1.0000   1.0000   1.0000
     1.0000   0.0000   0.0000   0.0000   0.0000   0.0000   0.0000   0.0000
     0.0000   0.0000   0.0000   0.0000   0.0000   0.0000   0.0000   0.0000
     0.0000   0.0000   0.0000   0.0000   0.0000   0.0000   0.0000   0.0000
     0.0000   0.0000   0.0000   0.0000   0.0000   0.0000   0.0000   0.0000
     0.0000   0.0000   0.0000   0.0000   0.0000   0.0000   0.0000   0.0000
     0.0000   0.0000   0.0000   0.0000   0.0000   0.0000   0.0000   0.0000
     0.0000   0.0000   0.0000   0.0000   0.0000   0.0000   0.0000   0.0000
     0.0000   0.0000   0.0000

[...]

          k =-0.5000-0.5000-0.5000 (269968 PWs)   bands (ev):

[...]

 ------ SPIN DOWN ----------

[...]

          k =-0.2500 0.0000 0.2500 (269929 PWs)   bands (ev):

[...]

          k = 0.2500-0.2500-0.5000 (269988 PWs)   bands (ev):

  -103.5421 -60.9818 -60.9591 -60.9591  -7.4936  -7.4257  -7.2932  -7.2927
    -7.2341  -7.2041  -7.1459  -7.0430  -7.0208  -7.0187  -6.9813  -6.9767
    -6.9674  -6.9604  -6.9221  -6.9020  -6.9005  -6.8941  -6.8831  -6.8689
    -6.8614  -6.8477  -6.8355  -6.8303  -6.8167  -6.8075  -6.8045  -6.8031
    -6.4547  -6.3398  -6.3371  -3.8709  -3.8699  -3.8670  -3.8355  -3.8349
    -3.8320  -3.8306  -3.8295  -3.8267  -3.8219  -3.8179  -3.8154  -3.8140
    -3.8111  -3.8106  -3.8078  -3.8006  -3.7999  -3.7924  -3.7866  -3.7851
    -3.7800  -3.7786  -3.7762  -3.7721  -3.7701  -3.7673  -3.7662  -3.7635
    -3.7598  -3.7571  -3.7558  -3.7511  -3.7484  -3.7473  -3.7444  -3.7402
    -3.7400  -3.7389  -3.7368  -3.7355  -3.7286  -3.7213  -3.7185  -3.7133
    -3.7094  -3.7091  -3.7068  -3.7048  -3.7025  -3.7004  -3.6975  -3.6962
    -3.6952  -3.6902  -3.6878  -3.6852  -3.6839  -3.6824  -3.6784  -3.6737
    -3.6714  -3.6651  -3.6624  -3.6543  -3.6537  -3.6484  -3.6443  -3.6432
    -3.6400  -3.6390  -3.6385  -3.6366  -3.6319  -3.6303  -3.6285  -3.6262
    -3.6220  -3.6188  -3.6167  -3.6150  -3.6141  -3.6116  -3.6084  -3.6077
    -3.6060  -3.6037  -3.6012  -3.5991  -3.5939  -3.5900  -3.5897  -3.5882
    -3.5829  -3.5798  -3.5742  -3.5736  -3.5686  -3.5675  -3.5608  -3.5534
    -3.5416  -3.5385  -3.5336  -3.5174  -3.5155  -3.5132  -3.5119  -3.5078
    -3.5015  -3.4970  -3.4926  -3.4897  -3.4844  -3.4808  -3.4780  -3.4753
    -3.4738  -3.4702  -3.4669  -3.4623  -3.4581  -3.4508  -3.4403  -3.4247
    -3.4187  -3.4144  -3.4121  -3.3968  -3.3958  -3.3940  -3.3327  -3.3145
    -3.3061  -3.2883  -3.2420  -3.2231  -3.2008  -3.1823  -3.1630  -3.1364
    -3.1038  -3.0966  -3.0690  -3.0616  -3.0522  -3.0387  -3.0213  -3.0093
    -2.9993  -2.9873  -2.9793  -2.9700  -2.9587  -2.9467   0.4643   0.5297
     0.5998   0.6228   0.6702   0.6800   0.6994   0.7254   0.7270   0.7418
     0.7598   0.7770   0.8035   0.8316   0.8742   0.8991   0.9500   1.0520
     1.1500   1.2087   1.2436   1.2814   1.3177   1.4187   1.5834   1.8707
     2.1377   2.2198   2.2749   2.3482   2.3619   2.3836   2.4426   2.4749
     2.5248   2.5734   2.5901   2.6116   2.6436   2.7083   2.7218   2.8073
     2.8510   2.8675   2.9468   3.0270   3.1089   3.1326   3.2060   3.2227
     3.2848   3.2987   3.3062   3.3185   3.3272   3.3471   3.3939   3.4261
     3.4304   3.4440   3.4600   3.4850   3.4941   3.5176   3.5564   3.5699
     3.5989   3.6108   3.6498   3.6750   3.7441   3.7521   3.8265   3.8453
     3.8890   3.9364   3.9612   3.9752   4.0337   4.0523   4.1351   4.1677
     4.1944   4.2124   4.2350   4.2730   4.3770   4.4604   4.5391   4.6176
     4.6272   4.6805   4.7304   4.7992   4.8265   4.8441   5.2382   5.3089
     6.9262   8.3472   8.4449   8.8859   8.9436   9.0414   9.0916   9.2375
     9.2976   9.3273   9.3945   9.4861   9.5089   9.5385   9.5611   9.5790
     9.6382   9.6959   9.7127   9.7488   9.7870   9.8240   9.8434   9.8975
     9.9397   9.9634  10.0272  10.0486  10.0650  10.1372  10.1785  10.2774
    10.2942  10.3918  10.4255  10.5802  10.6619  10.7065  10.7286  10.7897
    10.8188  10.9131  11.0135  11.1034  11.1700  11.2193  11.3201  11.3839
    11.4185  11.4404  11.4529  11.4958  11.5287  11.5535  11.5810  11.5986
    11.6182  11.6216  11.6559

     occupation numbers
     1.0000   1.0000   1.0000   1.0000   1.0000   1.0000   1.0000   1.0000
     1.0000   1.0000   1.0000   1.0000   1.0000   1.0000   1.0000   1.0000
     1.0000   1.0000   1.0000   1.0000   1.0000   1.0000   1.0000   1.0000
     1.0000   1.0000   1.0000   1.0000   1.0000   1.0000   1.0000   1.0000
     1.0000   1.0000   1.0000   1.0000   1.0000   1.0000   1.0000   1.0000
     1.0000   1.0000   1.0000   1.0000   1.0000   1.0000   1.0000   1.0000
     1.0000   1.0000   1.0000   1.0000   1.0000   1.0000   1.0000   1.0000
     1.0000   1.0000   1.0000   1.0000   1.0000   1.0000   1.0000   1.0000
     1.0000   1.0000   1.0000   1.0000   1.0000   1.0000   1.0000   1.0000
     1.0000   1.0000   1.0000   1.0000   1.0000   1.0000   1.0000   1.0000
     1.0000   1.0000   1.0000   1.0000   1.0000   1.0000   1.0000   1.0000
     1.0000   1.0000   1.0000   1.0000   1.0000   1.0000   1.0000   1.0000
     1.0000   1.0000   1.0000   1.0000   1.0000   1.0000   1.0000   1.0000
     1.0000   1.0000   1.0000   1.0000   1.0000   1.0000   1.0000   1.0000
     1.0000   1.0000   1.0000   1.0000   1.0000   1.0000   1.0000   1.0000
     1.0000   1.0000   1.0000   1.0000   1.0000   1.0000   1.0000   1.0000
     1.0000   1.0000   1.0000   1.0000   1.0000   1.0000   1.0000   1.0000
     1.0000   1.0000   1.0000   1.0000   1.0000   1.0000   1.0000   1.0000
     1.0000   1.0000   1.0000   1.0000   1.0000   1.0000   1.0000   1.0000
     1.0000   1.0000   1.0000   1.0000   1.0000   1.0000   1.0000   1.0000
     1.0000   1.0000   1.0000   1.0000   1.0000   1.0000   1.0000   1.0000
     1.0000   1.0000   1.0000   1.0000   1.0000   1.0000   1.0000   1.0000
     1.0000   1.0000   1.0000   1.0000   1.0000   1.0000   1.0000   1.0000
     1.0000   1.0000   1.0000   1.0000   1.0000   1.0000   1.0000   1.0000
     1.0000   1.0000   1.0000   1.0000   1.0000   1.0000   1.0000   1.0000
     1.0000   1.0000   1.0000   1.0000   1.0000   1.0000   1.0000   1.0000
     1.0000   1.0000   1.0000   1.0000   1.0000   1.0000   1.0000   1.0000
     1.0000   1.0000   1.0000   1.0000   1.0000   1.0000   1.0000   1.0000
     1.0000   1.0000   1.0000   1.0000   1.0000   1.0000   1.0000   1.0000
     1.0000   1.0000   1.0000   1.0000   1.0000   1.0000   1.0000   1.0000
     1.0000   1.0000   1.0000   1.0000   1.0000   1.0000   1.0000   1.0000
     1.0000   1.0000   1.0000   1.0000   1.0000   1.0000   1.0000   1.0000
     1.0000   1.0000   1.0000   1.0000   1.0000   1.0000   1.0000   1.0000
     1.0000   1.0000   1.0000   1.0000   1.0000   1.0000   1.0000   1.0000
     1.0000   1.0000   1.0000   1.0000   1.0000   1.0000   1.0000   1.0000
     1.0000   1.0000   1.0000   1.0000   1.0000   1.0000   1.0000   1.0000
     1.0000   0.0000   0.0000   0.0000   0.0000   0.0000   0.0000   0.0000
     0.0000   0.0000   0.0000   0.0000   0.0000   0.0000   0.0000   0.0000
     0.0000   0.0000   0.0000   0.0000   0.0000   0.0000   0.0000   0.0000
     0.0000   0.0000   0.0000   0.0000   0.0000   0.0000   0.0000   0.0000
     0.0000   0.0000   0.0000   0.0000   0.0000   0.0000   0.0000   0.0000
     0.0000   0.0000   0.0000   0.0000   0.0000   0.0000   0.0000   0.0000
     0.0000   0.0000   0.0000   0.0000   0.0000   0.0000   0.0000   0.0000
     0.0000   0.0000   0.0000

     the Fermi energy is     7.6180 ev

!    total energy              =  -10100.06481044 Ry
     total all-electron energy =   -139418.593859 Ry
     estimated scf accuracy    <          9.5E-10 Ry
     smearing contrib. (-TS)   =      -0.00000000 Ry
     internal energy E=F+TS    =  -10100.06481044 Ry

     The total energy is F=E-TS. E is the sum of the following terms:
     one-electron contribution =   -3087.74376279 Ry
     hartree contribution      =    2121.47575630 Ry
     xc contribution           =   -1662.46562031 Ry
     ewald contribution        =   -2984.70201120 Ry
     Hubbard energy            =       0.27439993 Ry
     one-center paw contrib.   =   -4486.90357238 Ry
      -> PAW hartree energy AE =     123.90671043 Ry
      -> PAW hartree energy PS =    -123.25990667 Ry
      -> PAW xc energy AE      =    -143.27798286 Ry
      -> PAW xc energy PS      =      47.21449330 Ry
      -> total E_H with PAW    =    2122.12256007 Ry
      -> total E_XC with PAW   =   -1758.52910986 Ry

     total magnetization       =    -0.00 Bohr mag/cell
     absolute magnetization    =     0.00 Bohr mag/cell

     convergence has been achieved in  14 iterations

     Writing all to output data dir ./out/Cu_vac_qn1_U6_unrlxd.save/

     General routines

     Parallel routines

     Hubbard U routines

     PAW routines

   This run was terminated on:  18: 3:18  18Jul2024

   JOB DONE.