     Program PWSCF v.7.2 starts on 29Jun2024 at  4:11:17

     Reading input from 2.Cu_vac_in_ZnS.scf.qn1.in

     Current dimensions of program PWSCF are:
     Max number of different atomic species (ntypx) = 10
     Max number of k-points (npk) =  40000
     Max angular momentum in pseudopotentials (lmaxx) =  4

     File ./out/Cu_vac_qn1.update deleted, as requested

     File ./out/Cu_vac_qn1.bfgs deleted, as requested
     file S.pbe-n-kjpaw_psl.1.0.0.UPF: wavefunction(s)  3S 3P renormalized
     file Zn.pbe-dnl-kjpaw_psl.1.0.0.UPF: wavefunction(s)  4S 3D renormalized
     file Cu.pbe-spn-kjpaw_psl.1.0.0.UPF: wavefunction(s)  4S 3P 3D renormalized

     K-points division:     npool     =       5
     R & G space division:  proc/nbgrp/npool/nimage =     112
     Subspace diagonalization in iterative solution of the eigenvalue problem:
     one sub-group per band group will be used

     Using Slab Decomposition

     bravais-lattice index     =            1
     lattice parameter (alat)  =      20.5686  a.u.
     unit-cell volume          =    8701.8437 (a.u.)^3
     number of atoms/cell      =           63
     number of atomic types    =            3
     number of electrons       =       578.00
     number of Kohn-Sham states=          347
     kinetic-energy cutoff     =     150.0000  Ry
     charge density cutoff     =     600.0000  Ry
     scf convergence threshold =      1.0E-08
     mixing beta               =       0.7000
     number of iterations used =            8  plain     mixing
     Exchange-correlation= SLA  PW   PBX  PBC
                           (   1   4   3   4   0   0   0)

     celldm(1)=  20.568554  celldm(2)=   0.000000  celldm(3)=   0.000000
     celldm(4)=   0.000000  celldm(5)=   0.000000  celldm(6)=   0.000000

     crystal axes: (cart. coord. in units of alat)
               a(1) = (   1.000000   0.000000   0.000000 )
               a(2) = (   0.000000   1.000000   0.000000 )
               a(3) = (   0.000000   0.000000   1.000000 )

     reciprocal axes: (cart. coord. in units 2 pi/alat)
               b(1) = (  1.000000  0.000000  0.000000 )
               b(2) = (  0.000000  1.000000  0.000000 )
               b(3) = (  0.000000  0.000000  1.000000 )

     PseudoPot. # 1 for S  read from file:
     /arf/home/amuhaymin/pseudo/S.pbe-n-kjpaw_psl.1.0.0.UPF
     MD5 check sum: fb45dfebcf3e72a4e1bd4a866ec2e262
     Pseudo is Projector augmented-wave + core cor, Zval =  6.0
     Generated using &quot;atomic&quot; code by A. Dal Corso  v.6.3
     Shape of augmentation charge: PSQ
     Using radial grid of 1151 points,  6 beta functions with:
                l(1) =   0
                l(2) =   0
                l(3) =   1
                l(4) =   1
                l(5) =   2
                l(6) =   2
     Q(r) pseudized with 0 coefficients

     PseudoPot. # 2 for Zn read from file:
     /arf/home/amuhaymin/pseudo/Zn.pbe-dnl-kjpaw_psl.1.0.0.UPF
     MD5 check sum: c608214d9520ac179f507641260889e3
     Pseudo is Projector augmented-wave + core cor, Zval = 12.0
     Generated using &quot;atomic&quot; code by A. Dal Corso  v.6.2.2
     Shape of augmentation charge: PSQ
     Using radial grid of 1201 points,  6 beta functions with:
                l(1) =   0
                l(2) =   0
                l(3) =   1
                l(4) =   1
                l(5) =   2
                l(6) =   2
     Q(r) pseudized with 0 coefficients

     PseudoPot. # 3 for Cu read from file:
     /arf/home/amuhaymin/pseudo/Cu.pbe-spn-kjpaw_psl.1.0.0.UPF
     MD5 check sum: e7cbaad2f97193e5fe23251a619a52b0
     Pseudo is Projector augmented-wave + core cor, Zval = 19.0
     Generated using &quot;atomic&quot; code by A. Dal Corso  v.6.3
     Shape of augmentation charge: PSQ
     Using radial grid of 1199 points,  6 beta functions with:
                l(1) =   0
                l(2) =   0
                l(3) =   1
                l(4) =   1
                l(5) =   2
                l(6) =   2
     Q(r) pseudized with 0 coefficients

     atomic species   valence    mass     pseudopotential
        S              6.00    32.06500     S ( 1.00)
        Zn            12.00    65.38000     Zn( 1.00)
        Cu            19.00    63.54600     Cu( 1.00)

     Starting magnetic structure
     atomic species   magnetization
        S            0.000
        Zn           0.000
        Cu           0.000

      6 Sym. Ops. (no inversion) found

                                    s                        frac. trans.

      isym =  1     identity

 cryst.   s( 1) = (     1          0          0      )
                  (     0          1          0      )
                  (     0          0          1      )

 cart.    s( 1) = (  1.0000000  0.0000000  0.0000000 )
                  (  0.0000000  1.0000000  0.0000000 )
                  (  0.0000000  0.0000000  1.0000000 )

      isym =  2     120 deg rotation - cart. axis [-1,-1,-1]

[...]

      isym =  3     120 deg rotation - cart. axis [1,1,1]

[...]

      isym =  4     inv. 180 deg rotation - cart. axis [1,-1,0]

[...]

      isym =  6     inv. 180 deg rotation - cart. axis [0,1,-1]

 cryst.   s( 6) = (     1          0          0      )
                  (     0          0          1      )
                  (     0          1          0      )

 cart.    s( 6) = (  1.0000000  0.0000000  0.0000000 )
                  (  0.0000000  0.0000000  1.0000000 )
                  (  0.0000000  1.0000000  0.0000000 )

     point group C_3v (3m)
     there are  3 classes
     the character table:

       E     2C3   3s_v
A_1    1.00  1.00  1.00
A_2    1.00  1.00 -1.00
E      2.00 -1.00  0.00

     the symmetry operations in each class and the name of the first element:

     E        1
          identity
     2C3      2    3
          120 deg rotation - cart. axis [-1,-1,-1]
     3s_v     4    5    6
          inv. 180 deg rotation - cart. axis [1,-1,0]

   Cartesian axes

     site n.     atom                  positions (alat units)
         1           Zn  tau(   1) = (   0.0006662   0.0006662   0.0006662  )
         2           Zn  tau(   2) = (  -0.0011569   0.2505963   0.2505963  )
         3           Zn  tau(   3) = (   0.2505963  -0.0011569   0.2505963  )
         4           Zn  tau(   4) = (   0.2505963   0.2505963  -0.0011569  )
         5           S   tau(   5) = (   0.1240282   0.3756031   0.3756031  )
         6           S   tau(   6) = (   0.1257271   0.1257271   0.1257271  )
         7           S   tau(   7) = (   0.3756031   0.3756031   0.1240282  )
         8           S   tau(   8) = (   0.3756031   0.1240282   0.3756031  )
         9           Zn  tau(   9) = (  -0.0017663  -0.0017663   0.5015764  )
        10           Zn  tau(  10) = (  -0.0033338   0.2560302   0.7485699  )
        11           Zn  tau(  11) = (   0.2560302  -0.0033338   0.7485699  )
        12           Zn  tau(  12) = (   0.2501210   0.2501210   0.5022234  )
        13           S   tau(  13) = (   0.1254857   0.3772598   0.8745684  )
        14           S   tau(  14) = (   0.1239933   0.1239933   0.6269473  )
        15           S   tau(  15) = (   0.3749207   0.3749207   0.6250441  )
        16           S   tau(  16) = (   0.3772598   0.1254857   0.8745684  )
        17           Zn  tau(  17) = (  -0.0017663   0.5015764  -0.0017663  )
        18           Zn  tau(  18) = (  -0.0033338   0.7485699   0.2560302  )
        19           Zn  tau(  19) = (   0.2501210   0.5022234   0.2501210  )
        20           Zn  tau(  20) = (   0.2560302   0.7485699  -0.0033338  )
        21           S   tau(  21) = (   0.1254857   0.8745684   0.3772598  )
        22           S   tau(  22) = (   0.1239933   0.6269473   0.1239933  )
        23           S   tau(  23) = (   0.3772598   0.8745684   0.1254857  )
        24           S   tau(  24) = (   0.3749207   0.6250441   0.3749207  )
        25           Zn  tau(  25) = (  -0.0024399   0.5006647   0.5006647  )
        26           Zn  tau(  26) = (   0.0011362   0.7514196   0.7514196  )
        27           Zn  tau(  27) = (   0.2537762   0.5013078   0.7487316  )
        28           Zn  tau(  28) = (   0.2537762   0.7487316   0.5013078  )
        29           S   tau(  29) = (   0.1277297   0.8757489   0.8757489  )
        30           S   tau(  30) = (   0.1252745   0.6255736   0.6255736  )
        31           S   tau(  31) = (   0.3847982   0.8666467   0.6278239  )
        32           S   tau(  32) = (   0.3847982   0.6278239   0.8666467  )
        33           Zn  tau(  33) = (   0.5015764  -0.0017663  -0.0017663  )
        34           Zn  tau(  34) = (   0.5022234   0.2501210   0.2501210  )
        35           Zn  tau(  35) = (   0.7485699  -0.0033338   0.2560302  )
        36           Zn  tau(  36) = (   0.7485699   0.2560302  -0.0033338  )
        37           S   tau(  37) = (   0.6250441   0.3749207   0.3749207  )
        38           S   tau(  38) = (   0.6269473   0.1239933   0.1239933  )
        39           S   tau(  39) = (   0.8745684   0.3772598   0.1254857  )
        40           S   tau(  40) = (   0.8745684   0.1254857   0.3772598  )
        41           Zn  tau(  41) = (   0.5006647  -0.0024399   0.5006647  )
        42           Zn  tau(  42) = (   0.5013078   0.2537762   0.7487316  )
        43           Zn  tau(  43) = (   0.7514196   0.0011362   0.7514196  )
        44           Zn  tau(  44) = (   0.7487316   0.2537762   0.5013078  )
        45           S   tau(  45) = (   0.6278239   0.3847982   0.8666467  )
        46           S   tau(  46) = (   0.6255736   0.1252745   0.6255736  )
        47           S   tau(  47) = (   0.8666467   0.3847982   0.6278239  )
        48           S   tau(  48) = (   0.8757489   0.1277297   0.8757489  )
        49           Zn  tau(  49) = (   0.5006647   0.5006647  -0.0024399  )
        50           Zn  tau(  50) = (   0.5013078   0.7487316   0.2537762  )
        51           Zn  tau(  51) = (   0.7487316   0.5013078   0.2537762  )
        52           Zn  tau(  52) = (   0.7514196   0.7514196   0.0011362  )
        53           S   tau(  53) = (   0.6278239   0.8666467   0.3847982  )
        54           S   tau(  54) = (   0.6255736   0.6255736   0.1252745  )
        55           S   tau(  55) = (   0.8757489   0.8757489   0.1277297  )
        56           S   tau(  56) = (   0.8666467   0.6278239   0.3847982  )
        57           Cu  tau(  57) = (   0.4734380   0.4734380   0.4734380  )
        58           Zn  tau(  58) = (   0.5371892   0.7286114   0.7286114  )
        59           Zn  tau(  59) = (   0.7286114   0.5371892   0.7286114  )
        60           Zn  tau(  60) = (   0.7286114   0.7286114   0.5371892  )
        61           S   tau(  61) = (   0.6272289   0.8730427   0.8730427  )
        62           S   tau(  62) = (   0.8730427   0.8730427   0.6272289  )
        63           S   tau(  63) = (   0.8730427   0.6272289   0.8730427  )

   Crystallographic axes

     site n.     atom                  positions (cryst. coord.)
         1           Zn  tau(   1) = (  0.0006662  0.0006662  0.0006662  )
         2           Zn  tau(   2) = ( -0.0011569  0.2505963  0.2505963  )
[...]
     atom  28 (R=0.088)  charge= 10.1210  magn= -0.0000
     atom  29 (R=0.085)  charge=  3.6491  magn= -0.0000
     atom  30 (R=0.085)  charge=  3.6497  magn=  0.0000
     atom  31 (R=0.085)  charge=  3.6323  magn=  0.0000
     atom  32 (R=0.085)  charge=  3.6323  magn=  0.0000
     atom  33 (R=0.088)  charge= 10.1168  magn=  0.0000
     atom  34 (R=0.088)  charge= 10.1153  magn= -0.0000
     atom  35 (R=0.088)  charge= 10.1056  magn=  0.0000
     atom  36 (R=0.088)  charge= 10.1056  magn=  0.0000
     atom  37 (R=0.085)  charge=  3.6633  magn=  0.0000
     atom  38 (R=0.085)  charge=  3.6388  magn= -0.0000
     atom  39 (R=0.085)  charge=  3.6487  magn= -0.0000
     atom  40 (R=0.085)  charge=  3.6487  magn= -0.0000
     atom  41 (R=0.088)  charge= 10.1193  magn= -0.0000
     atom  42 (R=0.088)  charge= 10.1210  magn= -0.0000
     atom  43 (R=0.088)  charge= 10.1229  magn= -0.0000
     atom  44 (R=0.088)  charge= 10.1210  magn= -0.0000
     atom  45 (R=0.085)  charge=  3.6323  magn=  0.0000
     atom  46 (R=0.085)  charge=  3.6497  magn=  0.0000
     atom  47 (R=0.085)  charge=  3.6323  magn=  0.0000
     atom  48 (R=0.085)  charge=  3.6491  magn= -0.0000
     atom  49 (R=0.088)  charge= 10.1193  magn= -0.0000
     atom  50 (R=0.088)  charge= 10.1210  magn= -0.0000
     atom  51 (R=0.088)  charge= 10.1210  magn= -0.0000
     atom  52 (R=0.088)  charge= 10.1229  magn= -0.0000
     atom  53 (R=0.085)  charge=  3.6323  magn=  0.0000
     atom  54 (R=0.085)  charge=  3.6497  magn=  0.0000
     atom  55 (R=0.085)  charge=  3.6491  magn= -0.0000
     atom  56 (R=0.085)  charge=  3.6323  magn=  0.0000
     atom  57 (R=0.085)  charge= 17.2015  magn=  0.0000
     atom  58 (R=0.088)  charge= 10.0534  magn= -0.0000
     atom  59 (R=0.088)  charge= 10.0534  magn= -0.0000
     atom  60 (R=0.088)  charge= 10.0534  magn= -0.0000
     atom  61 (R=0.085)  charge=  3.6469  magn= -0.0000
     atom  62 (R=0.085)  charge=  3.6469  magn= -0.0000
     atom  63 (R=0.085)  charge=  3.6469  magn= -0.0000

     End of self-consistent calculation

 ------ SPIN UP ------------

          k = 0.0000 0.0000 0.0000 (269825 PWs)   bands (ev):

  -104.9538 -62.3858 -62.3404 -62.3404  -7.5387  -7.0272  -7.0134  -7.0134
    -7.0091  -7.0091  -6.9731  -6.7469  -6.7469  -6.7328  -6.7232  -6.6965
    -6.6965  -6.6949  -6.6949  -6.6937  -6.6752  -6.6731  -6.6731  -6.5938
    -6.5923  -6.5923  -6.4658  -6.4090  -6.4079  -6.4079  -6.3455  -6.3455
    -6.3129  -6.2964  -6.2964  -0.8813  -0.8682  -0.8682  -0.8652  -0.8579
    -0.8579  -0.8197  -0.8127  -0.8127  -0.7821  -0.7768  -0.7768  -0.7627
    -0.7627  -0.7579  -0.7511  -0.7511  -0.7397  -0.7397  -0.7352  -0.7330
    -0.7305  -0.7305  -0.7276  -0.7174  -0.7126  -0.7086  -0.7086  -0.7037
    -0.7037  -0.6991  -0.6978  -0.6978  -0.6903  -0.6903  -0.6903  -0.6796
    -0.6796  -0.6781  -0.6735  -0.6727  -0.6727  -0.6687  -0.6687  -0.6633
    -0.6594  -0.6476  -0.6452  -0.6452  -0.6385  -0.6385  -0.6315  -0.6315
    -0.6210  -0.6195  -0.6195  -0.5871  -0.5788  -0.5788  -0.5765  -0.5703
    -0.5703  -0.5602  -0.5576  -0.5576  -0.5501  -0.5501  -0.5481  -0.5400
    -0.5242  -0.5242  -0.5239  -0.5111  -0.5101  -0.5101  -0.5047  -0.4992
    -0.4992  -0.4882  -0.4882  -0.4732  -0.4694  -0.4404  -0.4404  -0.4347
    -0.4347  -0.4286  -0.4274  -0.4274  -0.4208  -0.4208  -0.4205  -0.4145
    -0.4145  -0.4122  -0.4053  -0.4053  -0.3982  -0.3970  -0.3851  -0.3787
    -0.3755  -0.3755  -0.3746  -0.3687  -0.3687  -0.3647  -0.3647  -0.3633
    -0.3483  -0.3483  -0.3435  -0.3435  -0.3359  -0.3333  -0.3333  -0.3301
    -0.3163  -0.3163  -0.3150  -0.3083  -0.3083  -0.2982  -0.2982  -0.2954
    -0.2954  -0.2951  -0.2827  -0.2827  -0.2825  -0.2766  -0.2765  -0.2765
    -0.2668  -0.2608  -0.2598  -0.2598  -0.2496  -0.2496  -0.2483  -0.2427
    -0.2383  -0.2383  -0.1760  -0.1760  -0.1624  -0.1521  -0.1521  -0.1316
    -0.0787  -0.0114  -0.0114   0.0194   0.0194   0.0266   0.3123   0.3408
     0.3408   0.3474   0.9040   0.9194   0.9194   0.9283   0.9283   0.9413
     0.9650   1.0274   1.0274   1.1937   1.4559   1.4559   1.4923   1.5182
     1.5239   1.5239   1.5350   1.5350   1.8127   1.8127   1.9259   2.4434
     2.6531   2.6531   2.7170   2.7170   2.7197   2.7537   2.7537   2.8023
     2.8023   2.8110   2.8238   2.8293   2.8293   2.8314   2.8939   2.8939
     2.9185   2.9461   2.9461   2.9927   3.0055   3.0091   3.0091   3.0160
     3.0172   3.0172   3.1209   3.1209   3.1914   3.3235   3.3235   3.3386
     3.5266   3.5266   3.6415   3.8655   3.8655   4.1946   4.1946   4.2072
     4.2285   4.2285   4.2345   4.2378   4.3313   4.3349   4.3349   4.3725
     4.3725   4.3955   4.3955   4.5196   4.5196   4.5240   4.5240   4.5351
     4.5369   4.5443   4.5443   4.5719   4.5856   4.6314   4.6314   4.6805
     4.7981   5.1936   5.1936   5.2083   5.2129   5.2129   5.3661   5.9395
     5.9395   7.6446   8.2253   8.2253   8.6405   8.6745   8.6745   8.7806
     8.9188   8.9188   8.9432   9.3797   9.4532   9.4532   9.5585   9.7144
     9.7144   9.8061   9.8987   9.9123   9.9123   9.9904  10.0046  10.0046
    10.0251  10.0251  10.1264  10.1418  10.1421  10.1421  10.1825  10.1825
    10.2575  10.2575  10.2771  10.5018  10.6157  10.6157  10.9741  11.1656
    11.1656  11.2087  11.2340  11.2340  11.2948  11.2954  11.2954  11.5118
    11.6460  11.6460  11.7912  11.8356  11.8358  11.9036  11.9289  11.9289
    11.9710  12.0287  12.0468

     occupation numbers
     1.0000   1.0000   1.0000   1.0000   1.0000   1.0000   1.0000   1.0000
     1.0000   1.0000   1.0000   1.0000   1.0000   1.0000   1.0000   1.0000
     1.0000   1.0000   1.0000   1.0000   1.0000   1.0000   1.0000   1.0000
     1.0000   1.0000   1.0000   1.0000   1.0000   1.0000   1.0000   1.0000
     1.0000   1.0000   1.0000   1.0000   1.0000   1.0000   1.0000   1.0000
     1.0000   1.0000   1.0000   1.0000   1.0000   1.0000   1.0000   1.0000
     1.0000   1.0000   1.0000   1.0000   1.0000   1.0000   1.0000   1.0000
     1.0000   1.0000   1.0000   1.0000   1.0000   1.0000   1.0000   1.0000
     1.0000   1.0000   1.0000   1.0000   1.0000   1.0000   1.0000   1.0000
     1.0000   1.0000   1.0000   1.0000   1.0000   1.0000   1.0000   1.0000
     1.0000   1.0000   1.0000   1.0000   1.0000   1.0000   1.0000   1.0000
     1.0000   1.0000   1.0000   1.0000   1.0000   1.0000   1.0000   1.0000
     1.0000   1.0000   1.0000   1.0000   1.0000   1.0000   1.0000   1.0000
     1.0000   1.0000   1.0000   1.0000   1.0000   1.0000   1.0000   1.0000
     1.0000   1.0000   1.0000   1.0000   1.0000   1.0000   1.0000   1.0000
     1.0000   1.0000   1.0000   1.0000   1.0000   1.0000   1.0000   1.0000
     1.0000   1.0000   1.0000   1.0000   1.0000   1.0000   1.0000   1.0000
     1.0000   1.0000   1.0000   1.0000   1.0000   1.0000   1.0000   1.0000
     1.0000   1.0000   1.0000   1.0000   1.0000   1.0000   1.0000   1.0000
     1.0000   1.0000   1.0000   1.0000   1.0000   1.0000   1.0000   1.0000
     1.0000   1.0000   1.0000   1.0000   1.0000   1.0000   1.0000   1.0000
     1.0000   1.0000   1.0000   1.0000   1.0000   1.0000   1.0000   1.0000
     1.0000   1.0000   1.0000   1.0000   1.0000   1.0000   1.0000   1.0000
     1.0000   1.0000   1.0000   1.0000   1.0000   1.0000   1.0000   1.0000
     1.0000   1.0000   1.0000   1.0000   1.0000   1.0000   1.0000   1.0000
     1.0000   1.0000   1.0000   1.0000   1.0000   1.0000   1.0000   1.0000
     1.0000   1.0000   1.0000   1.0000   1.0000   1.0000   1.0000   1.0000
     1.0000   1.0000   1.0000   1.0000   1.0000   1.0000   1.0000   1.0000
     1.0000   1.0000   1.0000   1.0000   1.0000   1.0000   1.0000   1.0000
     1.0000   1.0000   1.0000   1.0000   1.0000   1.0000   1.0000   1.0000
     1.0000   1.0000   1.0000   1.0000   1.0000   1.0000   1.0000   1.0000
     1.0000   1.0000   1.0000   1.0000   1.0000   1.0000   1.0000   1.0000
     1.0000   1.0000   1.0000   1.0000   1.0000   1.0000   1.0000   1.0000
     1.0000   1.0000   1.0000   1.0000   1.0000   1.0000   1.0000   1.0000
     1.0000   1.0000   1.0000   1.0000   1.0000   1.0000   1.0000   1.0000
     1.0000   1.0000   1.0000   1.0000   1.0000   1.0000   1.0000   1.0000
     1.0000   0.0000   0.0000   0.0000   0.0000   0.0000   0.0000   0.0000
     0.0000   0.0000   0.0000   0.0000   0.0000   0.0000   0.0000   0.0000
     0.0000   0.0000   0.0000   0.0000   0.0000   0.0000   0.0000   0.0000
     0.0000   0.0000   0.0000   0.0000   0.0000   0.0000   0.0000   0.0000
     0.0000   0.0000   0.0000   0.0000   0.0000   0.0000   0.0000   0.0000
     0.0000   0.0000   0.0000   0.0000   0.0000   0.0000   0.0000   0.0000
     0.0000   0.0000   0.0000   0.0000   0.0000   0.0000   0.0000   0.0000
     0.0000   0.0000   0.0000

[...]

          k =-0.5000-0.5000-0.5000 (269968 PWs)   bands (ev):

[...]

 ------ SPIN DOWN ----------

[...]

          k =-0.2500 0.0000 0.2500 (269929 PWs)   bands (ev):

[...]

          k = 0.2500-0.2500-0.5000 (269988 PWs)   bands (ev):

  -104.9538 -62.3858 -62.3404 -62.3404  -7.3568  -7.2948  -7.1147  -7.1019
    -7.0704  -7.0121  -6.9198  -6.8318  -6.7435  -6.7347  -6.7071  -6.6832
    -6.6781  -6.6462  -6.6148  -6.6022  -6.5779  -6.5571  -6.5488  -6.5270
    -6.5094  -6.5001  -6.4922  -6.4715  -6.4601  -6.4390  -6.4198  -6.3981
    -6.3777  -6.3580  -6.3488  -0.8473  -0.8302  -0.8292  -0.8232  -0.8081
    -0.8017  -0.8014  -0.7945  -0.7894  -0.7797  -0.7793  -0.7779  -0.7722
    -0.7719  -0.7717  -0.7647  -0.7620  -0.7596  -0.7531  -0.7508  -0.7502
    -0.7493  -0.7413  -0.7368  -0.7361  -0.7343  -0.7280  -0.7252  -0.7213
    -0.7174  -0.7136  -0.7105  -0.7056  -0.7016  -0.6967  -0.6926  -0.6889
    -0.6863  -0.6839  -0.6814  -0.6785  -0.6711  -0.6689  -0.6684  -0.6649
    -0.6604  -0.6588  -0.6556  -0.6490  -0.6413  -0.6387  -0.6349  -0.6292
    -0.6225  -0.6186  -0.6096  -0.6084  -0.6060  -0.5994  -0.5959  -0.5945
    -0.5872  -0.5814  -0.5797  -0.5760  -0.5674  -0.5656  -0.5580  -0.5516
    -0.5455  -0.5416  -0.5329  -0.5280  -0.5134  -0.5067  -0.4987  -0.4920
    -0.4915  -0.4806  -0.4725  -0.4678  -0.4634  -0.4615  -0.4591  -0.4489
    -0.4355  -0.4338  -0.4247  -0.4223  -0.4196  -0.4157  -0.4136  -0.4072
    -0.4027  -0.3947  -0.3922  -0.3875  -0.3864  -0.3831  -0.3771  -0.3766
    -0.3705  -0.3702  -0.3653  -0.3639  -0.3582  -0.3571  -0.3558  -0.3556
    -0.3510  -0.3444  -0.3367  -0.3350  -0.3281  -0.3245  -0.3218  -0.3144
    -0.3111  -0.3090  -0.3028  -0.3019  -0.3001  -0.2972  -0.2914  -0.2890
    -0.2852  -0.2835  -0.2800  -0.2762  -0.2739  -0.2705  -0.2673  -0.2670
    -0.2646  -0.2611  -0.2569  -0.2546  -0.2479  -0.2457  -0.2410  -0.2255
    -0.2196  -0.1851  -0.1777  -0.1761  -0.1590  -0.1457  -0.1221  -0.1208
    -0.1115  -0.0966  -0.0814  -0.0697  -0.0581  -0.0530   0.5881   0.6581
     0.6707   0.8010   0.8350   0.8552   0.8955   0.9187   0.9292   0.9722
     0.9828   1.0116   1.0316   1.0481   1.0678   1.1036   1.1944   1.3084
     1.4005   1.4877   1.5779   1.6130   1.6349   1.7328   1.8712   1.8927
     2.3169   2.5209   2.5754   2.6011   2.6076   2.6208   2.6443   2.7299
     2.7601   2.7872   2.8073   2.8444   2.8566   2.9344   2.9588   3.0159
     3.1816   3.2091   3.2892   3.3444   3.4019   3.4094   3.4446   3.4761
     3.4785   3.5104   3.5339   3.5596   3.5658   3.5967   3.6292   3.6682
     3.6807   3.6846   3.6914   3.7096   3.7516   3.7881   3.8012   3.8189
     3.8387   3.8785   3.9219   3.9526   4.0230   4.0398   4.0956   4.1259
     4.1901   4.2161   4.2185   4.3093   4.3310   4.3883   4.3991   4.4320
     4.4552   4.5324   4.6372   4.7418   4.7559   4.8046   4.8450   4.8932
     4.9340   4.9841   5.0080   5.0746   5.2265   5.2415   5.4368   5.8499
     5.8828   7.9116   7.9683   8.7893   8.9324   8.9814   9.0624   9.1084
     9.2656   9.3176   9.3862   9.4443   9.5245   9.5682   9.5808   9.6175
     9.6247   9.6805   9.7238   9.7666   9.7891   9.8312   9.8676   9.8898
     9.9121   9.9632   9.9936   9.9999  10.0494  10.0964  10.1363  10.2185
    10.3173  10.3602  10.4320  10.5328  10.5654  10.6751  10.7162  10.7406
    10.8221  10.9112  11.0242  11.0362  11.0971  11.2054  11.3060  11.3519
    11.3677  11.4430  11.4888  11.5218  11.5470  11.5840  11.5892  11.6145
    11.6201  11.6405  11.7012

     occupation numbers
     1.0000   1.0000   1.0000   1.0000   1.0000   1.0000   1.0000   1.0000
     1.0000   1.0000   1.0000   1.0000   1.0000   1.0000   1.0000   1.0000
     1.0000   1.0000   1.0000   1.0000   1.0000   1.0000   1.0000   1.0000
     1.0000   1.0000   1.0000   1.0000   1.0000   1.0000   1.0000   1.0000
     1.0000   1.0000   1.0000   1.0000   1.0000   1.0000   1.0000   1.0000
     1.0000   1.0000   1.0000   1.0000   1.0000   1.0000   1.0000   1.0000
     1.0000   1.0000   1.0000   1.0000   1.0000   1.0000   1.0000   1.0000
     1.0000   1.0000   1.0000   1.0000   1.0000   1.0000   1.0000   1.0000
     1.0000   1.0000   1.0000   1.0000   1.0000   1.0000   1.0000   1.0000
     1.0000   1.0000   1.0000   1.0000   1.0000   1.0000   1.0000   1.0000
     1.0000   1.0000   1.0000   1.0000   1.0000   1.0000   1.0000   1.0000
     1.0000   1.0000   1.0000   1.0000   1.0000   1.0000   1.0000   1.0000
     1.0000   1.0000   1.0000   1.0000   1.0000   1.0000   1.0000   1.0000
     1.0000   1.0000   1.0000   1.0000   1.0000   1.0000   1.0000   1.0000
     1.0000   1.0000   1.0000   1.0000   1.0000   1.0000   1.0000   1.0000
     1.0000   1.0000   1.0000   1.0000   1.0000   1.0000   1.0000   1.0000
     1.0000   1.0000   1.0000   1.0000   1.0000   1.0000   1.0000   1.0000
     1.0000   1.0000   1.0000   1.0000   1.0000   1.0000   1.0000   1.0000
     1.0000   1.0000   1.0000   1.0000   1.0000   1.0000   1.0000   1.0000
     1.0000   1.0000   1.0000   1.0000   1.0000   1.0000   1.0000   1.0000
     1.0000   1.0000   1.0000   1.0000   1.0000   1.0000   1.0000   1.0000
     1.0000   1.0000   1.0000   1.0000   1.0000   1.0000   1.0000   1.0000
     1.0000   1.0000   1.0000   1.0000   1.0000   1.0000   1.0000   1.0000
     1.0000   1.0000   1.0000   1.0000   1.0000   1.0000   1.0000   1.0000
     1.0000   1.0000   1.0000   1.0000   1.0000   1.0000   1.0000   1.0000
     1.0000   1.0000   1.0000   1.0000   1.0000   1.0000   1.0000   1.0000
     1.0000   1.0000   1.0000   1.0000   1.0000   1.0000   1.0000   1.0000
     1.0000   1.0000   1.0000   1.0000   1.0000   1.0000   1.0000   1.0000
     1.0000   1.0000   1.0000   1.0000   1.0000   1.0000   1.0000   1.0000
     1.0000   1.0000   1.0000   1.0000   1.0000   1.0000   1.0000   1.0000
     1.0000   1.0000   1.0000   1.0000   1.0000   1.0000   1.0000   1.0000
     1.0000   1.0000   1.0000   1.0000   1.0000   1.0000   1.0000   1.0000
     1.0000   1.0000   1.0000   1.0000   1.0000   1.0000   1.0000   1.0000
     1.0000   1.0000   1.0000   1.0000   1.0000   1.0000   1.0000   1.0000
     1.0000   1.0000   1.0000   1.0000   1.0000   1.0000   1.0000   1.0000
     1.0000   1.0000   1.0000   1.0000   1.0000   1.0000   1.0000   1.0000
     1.0000   0.0000   0.0000   0.0000   0.0000   0.0000   0.0000   0.0000
     0.0000   0.0000   0.0000   0.0000   0.0000   0.0000   0.0000   0.0000
     0.0000   0.0000   0.0000   0.0000   0.0000   0.0000   0.0000   0.0000
     0.0000   0.0000   0.0000   0.0000   0.0000   0.0000   0.0000   0.0000
     0.0000   0.0000   0.0000   0.0000   0.0000   0.0000   0.0000   0.0000
     0.0000   0.0000   0.0000   0.0000   0.0000   0.0000   0.0000   0.0000
     0.0000   0.0000   0.0000   0.0000   0.0000   0.0000   0.0000   0.0000
     0.0000   0.0000   0.0000

     the Fermi energy is     6.6858 ev

!    total energy              =  -10100.45927011 Ry
     total all-electron energy =   -139418.988318 Ry
     estimated scf accuracy    <          7.1E-09 Ry
     smearing contrib. (-TS)   =      -0.00000000 Ry
     internal energy E=F+TS    =  -10100.45927011 Ry

     The total energy is F=E-TS. E is the sum of the following terms:
     one-electron contribution =   -3088.53363601 Ry
     hartree contribution      =    2117.53152524 Ry
     xc contribution           =   -1660.91346915 Ry
     ewald contribution        =   -2981.58448306 Ry
     one-center paw contrib.   =   -4486.95920713 Ry
      -> PAW hartree energy AE =     123.09201472 Ry
      -> PAW hartree energy PS =    -122.44955396 Ry
      -> PAW xc energy AE      =    -143.19774612 Ry
      -> PAW xc energy PS      =      47.13634617 Ry
      -> total E_H with PAW    =    2118.17398601 Ry
      -> total E_XC with PAW   =   -1756.97486910 Ry

     total magnetization       =     0.00 Bohr mag/cell
     absolute magnetization    =     0.00 Bohr mag/cell

     convergence has been achieved in  13 iterations

     Writing all to output data dir ./out/Cu_vac_qn1.save/

     General routines

     Parallel routines

     PAW routines

   This run was terminated on:   4:18:33  29Jun2024

   JOB DONE.