     Program PWSCF v.7.2 starts on  1Jul2024 at 11: 0:58

     Waiting for input...
     Reading input from standard input

     Current dimensions of program PWSCF are:
     Max number of different atomic species (ntypx) = 10
     Max number of k-points (npk) =  40000
     Max angular momentum in pseudopotentials (lmaxx) =  4
     file S.pbe-n-kjpaw_psl.1.0.0.UPF: wavefunction(s)  3S 3P renormalized
     file Zn.pbe-dnl-kjpaw_psl.1.0.0.UPF: wavefunction(s)  4S 3D renormalized
     Found identity + (  0.0000  0.2500  0.2500) symmetry
     This is a supercell, fractional translations are disabled

     K-points division:     npool     =      10
     R & G space division:  proc/nbgrp/npool/nimage =     112
     Subspace diagonalization in iterative solution of the eigenvalue problem:
     one sub-group per band group will be used

     Using Slab Decomposition

     bravais-lattice index     =            1
     lattice parameter (alat)  =      20.5686  a.u.
     unit-cell volume          =    8701.8437 (a.u.)^3
     number of atoms/cell      =           64
     number of atomic types    =            2
     number of electrons       =       576.00
     number of Kohn-Sham states=          345
     kinetic-energy cutoff     =     105.0000  Ry
     charge density cutoff     =     420.0000  Ry
     scf convergence threshold =      1.0E-06
     mixing beta               =       0.7000
     number of iterations used =            8  plain     mixing
     Exchange-correlation= SLA  PW   PBX  PBC
                           (   1   4   3   4   0   0   0)
     Hubbard projectors: ortho-atomic
     Hubbard parameters of DFT+U (Dudarev formulation) in eV:
     U(Zn-3d) =  2.0000

     Internal variables: lda_plus_u = T, lda_plus_u_kind = 0

     celldm(1)=  20.568554  celldm(2)=   0.000000  celldm(3)=   0.000000
     celldm(4)=   0.000000  celldm(5)=   0.000000  celldm(6)=   0.000000

     crystal axes: (cart. coord. in units of alat)
               a(1) = (   1.000000   0.000000   0.000000 )
               a(2) = (   0.000000   1.000000   0.000000 )
               a(3) = (   0.000000   0.000000   1.000000 )

     reciprocal axes: (cart. coord. in units 2 pi/alat)
               b(1) = (  1.000000  0.000000  0.000000 )
               b(2) = (  0.000000  1.000000  0.000000 )
               b(3) = (  0.000000  0.000000  1.000000 )

     PseudoPot. # 1 for S  read from file:
     /arf/home/amuhaymin/pseudo/S.pbe-n-kjpaw_psl.1.0.0.UPF
     MD5 check sum: fb45dfebcf3e72a4e1bd4a866ec2e262
     Pseudo is Projector augmented-wave + core cor, Zval =  6.0
     Generated using &quot;atomic&quot; code by A. Dal Corso  v.6.3
     Shape of augmentation charge: PSQ
     Using radial grid of 1151 points,  6 beta functions with:
                l(1) =   0
                l(2) =   0
                l(3) =   1
                l(4) =   1
                l(5) =   2
                l(6) =   2
     Q(r) pseudized with 0 coefficients

     PseudoPot. # 2 for Zn read from file:
     /arf/home/amuhaymin/pseudo/Zn.pbe-dnl-kjpaw_psl.1.0.0.UPF
     MD5 check sum: c608214d9520ac179f507641260889e3
     Pseudo is Projector augmented-wave + core cor, Zval = 12.0
     Generated using &quot;atomic&quot; code by A. Dal Corso  v.6.2.2
     Shape of augmentation charge: PSQ
     Using radial grid of 1201 points,  6 beta functions with:
                l(1) =   0
                l(2) =   0
                l(3) =   1
                l(4) =   1
                l(5) =   2
                l(6) =   2
     Q(r) pseudized with 0 coefficients

     atomic species   valence    mass     pseudopotential
        S              6.00    32.06500     S ( 1.00)
        Zn            12.00    65.38000     Zn( 1.00)

     24 Sym. Ops. (no inversion) found

                                    s                        frac. trans.

      isym =  1     identity

 cryst.   s( 1) = (     1          0          0      )
                  (     0          1          0      )
                  (     0          0          1      )

 cart.    s( 1) = (  1.0000000  0.0000000  0.0000000 )
                  (  0.0000000  1.0000000  0.0000000 )
                  (  0.0000000  0.0000000  1.0000000 )

      isym =  2     180 deg rotation - cart. axis [0,0,1]

[...]

 cryst.   s( 9) = (     0          1          0      )
                  (     0          0          1      )
                  (     1          0          0      )

 cart.    s( 9) = (  0.0000000  0.0000000  1.0000000 )
                  (  1.0000000  0.0000000  0.0000000 )
                  (  0.0000000  1.0000000  0.0000000 )

[...]

 cryst.   s(10) = (     0         -1          0      )
                  (     0          0         -1      )
                  (     1          0          0      )

 cart.    s(10) = (  0.0000000  0.0000000  1.0000000 )
                  ( -1.0000000  0.0000000  0.0000000 )
                  (  0.0000000 -1.0000000  0.0000000 )

[...]

      isym = 12     120 deg rotation - cart. axis [-1,-1,1]

[...]

      isym = 13     inv. 180 deg rotation - cart. axis [1,1,0]

[...]

      isym = 24     inv.  90 deg rotation - cart. axis [1,0,0]

 cryst.   s(24) = (    -1          0          0      )
                  (     0          0         -1      )
                  (     0          1          0      )

 cart.    s(24) = ( -1.0000000  0.0000000  0.0000000 )
                  (  0.0000000  0.0000000  1.0000000 )
                  (  0.0000000 -1.0000000  0.0000000 )

     point group T_d (-43m)
     there are  5 classes
     the character table:

       E     8C3   3C2   6S4   6s_d
A_1    1.00  1.00  1.00  1.00  1.00
A_2    1.00  1.00  1.00 -1.00 -1.00
E      2.00 -1.00  2.00  0.00  0.00
T_1    3.00  0.00 -1.00  1.00 -1.00
T_2    3.00  0.00 -1.00 -1.00  1.00

     the symmetry operations in each class and the name of the first element:

     E        1
          identity
     8C3      5    7    8    6   12    9   10   11
          120 deg rotation - cart. axis [-1,-1,-1]
     3C2      2    3    4
          180 deg rotation - cart. axis [0,0,1]
     6S4     15   16   20   19   23   24
          inv.  90 deg rotation - cart. axis [0,0,-1]
     6s_d    13   14   17   18   21   22
          inv. 180 deg rotation - cart. axis [1,1,0]

   Cartesian axes

     site n.     atom                  positions (alat units)
         1           Zn  tau(   1) = (   0.0000000   0.0000000   0.0000000  )
         2           Zn  tau(   2) = (   0.0000000   0.2500000   0.2500000  )
         3           Zn  tau(   3) = (   0.2500000   0.0000000   0.2500000  )
         4           Zn  tau(   4) = (   0.2500000   0.2500000   0.0000000  )
         5           S   tau(   5) = (   0.1250000   0.3750000   0.3750000  )
         6           S   tau(   6) = (   0.1250000   0.1250000   0.1250000  )
         7           S   tau(   7) = (   0.3750000   0.3750000   0.1250000  )
         8           S   tau(   8) = (   0.3750000   0.1250000   0.3750000  )
         9           Zn  tau(   9) = (   0.0000000   0.0000000   0.5000000  )
        10           Zn  tau(  10) = (   0.0000000   0.2500000   0.7500000  )
        11           Zn  tau(  11) = (   0.2500000   0.0000000   0.7500000  )
        12           Zn  tau(  12) = (   0.2500000   0.2500000   0.5000000  )
        13           S   tau(  13) = (   0.1250000   0.3750000   0.8750000  )
        14           S   tau(  14) = (   0.1250000   0.1250000   0.6250000  )
        15           S   tau(  15) = (   0.3750000   0.3750000   0.6250000  )
        16           S   tau(  16) = (   0.3750000   0.1250000   0.8750000  )
        17           Zn  tau(  17) = (   0.0000000   0.5000000   0.0000000  )
        18           Zn  tau(  18) = (   0.0000000   0.7500000   0.2500000  )
        19           Zn  tau(  19) = (   0.2500000   0.5000000   0.2500000  )
        20           Zn  tau(  20) = (   0.2500000   0.7500000   0.0000000  )
        21           S   tau(  21) = (   0.1250000   0.8750000   0.3750000  )
        22           S   tau(  22) = (   0.1250000   0.6250000   0.1250000  )
        23           S   tau(  23) = (   0.3750000   0.8750000   0.1250000  )
        24           S   tau(  24) = (   0.3750000   0.6250000   0.3750000  )
        25           Zn  tau(  25) = (   0.0000000   0.5000000   0.5000000  )
        26           Zn  tau(  26) = (   0.0000000   0.7500000   0.7500000  )
        27           Zn  tau(  27) = (   0.2500000   0.5000000   0.7500000  )
        28           Zn  tau(  28) = (   0.2500000   0.7500000   0.5000000  )
        29           S   tau(  29) = (   0.1250000   0.8750000   0.8750000  )
        30           S   tau(  30) = (   0.1250000   0.6250000   0.6250000  )
        31           S   tau(  31) = (   0.3750000   0.8750000   0.6250000  )
        32           S   tau(  32) = (   0.3750000   0.6250000   0.8750000  )
        33           Zn  tau(  33) = (   0.5000000   0.0000000   0.0000000  )
        34           Zn  tau(  34) = (   0.5000000   0.2500000   0.2500000  )
        35           Zn  tau(  35) = (   0.7500000   0.0000000   0.2500000  )
        36           Zn  tau(  36) = (   0.7500000   0.2500000   0.0000000  )
        37           S   tau(  37) = (   0.6250000   0.3750000   0.3750000  )
        38           S   tau(  38) = (   0.6250000   0.1250000   0.1250000  )
        39           S   tau(  39) = (   0.8750000   0.3750000   0.1250000  )
        40           S   tau(  40) = (   0.8750000   0.1250000   0.3750000  )
        41           Zn  tau(  41) = (   0.5000000   0.0000000   0.5000000  )
        42           Zn  tau(  42) = (   0.5000000   0.2500000   0.7500000  )
        43           Zn  tau(  43) = (   0.7500000   0.0000000   0.7500000  )
        44           Zn  tau(  44) = (   0.7500000   0.2500000   0.5000000  )
        45           S   tau(  45) = (   0.6250000   0.3750000   0.8750000  )
        46           S   tau(  46) = (   0.6250000   0.1250000   0.6250000  )
        47           S   tau(  47) = (   0.8750000   0.3750000   0.6250000  )
        48           S   tau(  48) = (   0.8750000   0.1250000   0.8750000  )
        49           Zn  tau(  49) = (   0.5000000   0.5000000   0.0000000  )
        50           Zn  tau(  50) = (   0.5000000   0.7500000   0.2500000  )
        51           Zn  tau(  51) = (   0.7500000   0.5000000   0.2500000  )
        52           Zn  tau(  52) = (   0.7500000   0.7500000   0.0000000  )
        53           S   tau(  53) = (   0.6250000   0.8750000   0.3750000  )
        54           S   tau(  54) = (   0.6250000   0.6250000   0.1250000  )
        55           S   tau(  55) = (   0.8750000   0.8750000   0.1250000  )
        56           S   tau(  56) = (   0.8750000   0.6250000   0.3750000  )
        57           Zn  tau(  57) = (   0.5000000   0.5000000   0.5000000  )
        58           Zn  tau(  58) = (   0.5000000   0.7500000   0.7500000  )
        59           Zn  tau(  59) = (   0.7500000   0.5000000   0.7500000  )
        60           Zn  tau(  60) = (   0.7500000   0.7500000   0.5000000  )
        61           S   tau(  61) = (   0.6250000   0.8750000   0.8750000  )
        62           S   tau(  62) = (   0.6250000   0.6250000   0.6250000  )
[...]
       0.000 -0.000 -0.000  0.999 -0.038
       0.700 -0.677  0.227 -0.000 -0.000
     occupation matrix ns (before diag.):
       0.997 -0.000 -0.000  0.000  0.000
      -0.000  0.995 -0.000  0.000  0.000
      -0.000 -0.000  0.995  0.000  0.000
       0.000  0.000  0.000  0.997 -0.000
       0.000  0.000  0.000 -0.000  0.995
     ------------------------ ATOM   58 ------------------------
     Tr[ns( 58)] =   9.95832
     eigenvalues:
       0.995  0.995  0.995  0.997  0.997
     eigenvectors (columns):
      -0.000 -0.000 -0.000  0.866  0.500
      -0.707  0.306  0.638 -0.000  0.000
       0.000  0.902 -0.432 -0.000  0.000
      -0.000  0.000  0.000  0.500 -0.866
      -0.707 -0.306 -0.638 -0.000 -0.000
     occupation matrix ns (before diag.):
       0.997 -0.000  0.000 -0.000 -0.000
      -0.000  0.995 -0.000 -0.000 -0.000
       0.000 -0.000  0.995 -0.000  0.000
      -0.000 -0.000 -0.000  0.997  0.000
      -0.000 -0.000  0.000  0.000  0.995
     ------------------------ ATOM   59 ------------------------
     Tr[ns( 59)] =   9.95832
     eigenvalues:
       0.995  0.995  0.995  0.997  0.997
     eigenvectors (columns):
      -0.000 -0.000 -0.000  0.866  0.500
       0.000  0.902 -0.432 -0.000  0.000
      -0.707  0.306  0.638 -0.000  0.000
       0.000 -0.000 -0.000 -0.500  0.866
      -0.707 -0.306 -0.638 -0.000 -0.000
     occupation matrix ns (before diag.):
       0.997  0.000 -0.000  0.000 -0.000
       0.000  0.995 -0.000  0.000  0.000
      -0.000 -0.000  0.995  0.000 -0.000
       0.000  0.000  0.000  0.997 -0.000
      -0.000  0.000 -0.000 -0.000  0.995
     ------------------------ ATOM   60 ------------------------
     Tr[ns( 60)] =   9.95832
     eigenvalues:
       0.995  0.995  0.995  0.997  0.997
     eigenvectors (columns):
      -0.000 -0.000  0.000 -0.000  1.000
       0.707 -0.306  0.638  0.000 -0.000
      -0.707 -0.306  0.638 -0.000 -0.000
       0.000 -0.000 -0.000 -1.000 -0.000
       0.000  0.902  0.432  0.000  0.000
     occupation matrix ns (before diag.):
       0.997 -0.000 -0.000  0.000  0.000
      -0.000  0.995  0.000 -0.000  0.000
      -0.000  0.000  0.995  0.000  0.000
       0.000 -0.000  0.000  0.997 -0.000
       0.000  0.000  0.000 -0.000  0.995

     Number of occupied Hubbard levels =  318.6662

     HUBBARD ENERGY =    0.0976  (Ry)

     End of self-consistent calculation

          k = 0.0000 0.0000 0.0000 (158355 PWs)   bands (ev):

    -7.4582  -6.9339  -6.9338  -6.9338  -6.9338  -6.9338  -6.9338  -6.6262
    -6.6262  -6.6262  -6.6262  -6.6260  -6.6260  -6.6260  -6.6260  -6.6260
    -6.6260  -6.6260  -6.6260  -6.6054  -6.6054  -6.6054  -6.6054  -6.3236
    -6.3236  -6.3236  -6.3168  -6.3168  -6.3168  -6.3168  -6.3168  -6.3168
    -1.4946  -1.4946  -1.4946  -1.4678  -1.4678  -1.4678  -1.4677  -1.4677
    -1.4677  -1.4220  -1.4219  -1.4219  -1.3978  -1.3978  -1.3978  -1.3978
    -1.3978  -1.3977  -1.3977  -1.3977  -1.3824  -1.3824  -1.3824  -1.3824
    -1.3824  -1.3824  -1.3824  -1.3824  -1.3824  -1.3823  -1.3823  -1.3823
    -1.3653  -1.3653  -1.3653  -1.3653  -1.3653  -1.3653  -1.3653  -1.3653
    -1.3653  -1.3652  -1.3652  -1.3652  -1.3576  -1.3576  -1.3576  -1.3576
    -1.3576  -1.3576  -1.3575  -1.3575  -1.3575  -1.3575  -1.3575  -1.3575
    -1.3476  -1.3476  -1.3476  -1.3476  -1.3476  -1.3476  -1.2723  -1.2723
    -1.2723  -1.2723  -1.2723  -1.2723  -1.2034  -1.2034  -1.2034  -1.2033
    -1.2033  -1.2033  -1.1709  -1.1709  -1.1709  -1.1709  -1.1709  -1.1709
    -1.1708  -1.1708  -1.1708  -1.1708  -1.1708  -1.1708  -1.1270  -1.1270
    -1.1270  -1.1270  -1.1270  -1.1269  -1.1260  -1.1260  -1.1259  -1.1259
    -1.1259  -1.1259  -1.1081  -1.1081  -1.1080  -1.1080  -1.1080  -1.1079
    -1.1079  -1.1079  -1.1079  -1.1079  -1.1079  -1.1078  -1.1078  -1.1078
    -1.1078  -1.1077  -1.1077  -1.1077  -1.0957  -1.0957  -1.0655  -1.0655
    -1.0655  -1.0655  -1.0655  -1.0655  -1.0653  -1.0653  -1.0600  -1.0600
    -1.0600  -1.0600  -1.0600  -1.0599  -1.0243  -1.0242  -1.0242  -0.9925
    -0.9925  -0.9925  -0.9924  -0.9924  -0.9924  -0.9924  -0.9924  -0.9924
    -0.9924  -0.9924  -0.9924  -0.8500  -0.8499  -0.8499  -0.8499  -0.8182
    -0.8182  -0.8182  -0.6562  -0.6562  -0.6562  -0.6561  -0.6561  -0.6561
     0.3839   0.3839   0.3839   0.3839   0.9151   0.9151   0.9151   1.0177
     1.0178   1.0178   1.0178   1.0178   1.0178   1.5424   1.5424   1.5424
     1.5424   1.5425   1.5425   1.5425   1.5425   1.5425   1.5425   1.5425
     1.5425   2.8212   2.8212   2.8212   2.8212   2.8212   2.8212   2.8788
     2.8788   2.8788   2.8788   2.8788   2.8788   2.8821   2.8821   2.8821
     2.8821   2.8821   2.8821   3.0523   3.0523   3.0523   3.0523   3.0523
     3.0523   3.0523   3.0523   3.0523   3.0523   3.0523   3.0523   3.3638
     3.3638   3.3638   3.3638   3.3638   3.3638   4.2930   4.2930   4.2930
     4.2930   4.2930   4.2930   4.2930   4.2930   4.2930   4.2930   4.2930
     4.2930   4.6129   4.6129   4.6129   4.6129   4.6129   4.6129   4.6129
     4.6129   4.6129   4.6129   4.6129   4.6129   4.6502   4.6502   4.6502
     4.6502   4.6502   4.6502   4.6502   4.6502   5.4726   5.4726   5.4726
     7.5621   8.8038   8.8038   8.8038   8.8038   8.9841   8.9841   8.9841
     9.6062   9.6062   9.6062   9.9763   9.9764   9.9764   9.9764   9.9764
     9.9764  10.1077  10.1077  10.1077  10.1077  10.1077  10.1077  10.3132
    10.3133  10.3133  10.3133  10.3133  10.3133  10.3133  10.3133  10.3133
    10.3133  10.3134  10.3134  11.2315  11.2315  11.2315  11.2316  11.2316
    11.2316  11.4732  11.4732  11.4732  11.4732  11.4732  11.4732  11.9287
    11.9289  12.1790  12.1815  12.1815  12.1816  12.1816  12.1816  12.1816
    12.1816

     occupation numbers
     1.0000   1.0000   1.0000   1.0000   1.0000   1.0000   1.0000   1.0000
     1.0000   1.0000   1.0000   1.0000   1.0000   1.0000   1.0000   1.0000
     1.0000   1.0000   1.0000   1.0000   1.0000   1.0000   1.0000   1.0000
     1.0000   1.0000   1.0000   1.0000   1.0000   1.0000   1.0000   1.0000
     1.0000   1.0000   1.0000   1.0000   1.0000   1.0000   1.0000   1.0000
     1.0000   1.0000   1.0000   1.0000   1.0000   1.0000   1.0000   1.0000
     1.0000   1.0000   1.0000   1.0000   1.0000   1.0000   1.0000   1.0000
     1.0000   1.0000   1.0000   1.0000   1.0000   1.0000   1.0000   1.0000
     1.0000   1.0000   1.0000   1.0000   1.0000   1.0000   1.0000   1.0000
     1.0000   1.0000   1.0000   1.0000   1.0000   1.0000   1.0000   1.0000
     1.0000   1.0000   1.0000   1.0000   1.0000   1.0000   1.0000   1.0000
     1.0000   1.0000   1.0000   1.0000   1.0000   1.0000   1.0000   1.0000
     1.0000   1.0000   1.0000   1.0000   1.0000   1.0000   1.0000   1.0000
     1.0000   1.0000   1.0000   1.0000   1.0000   1.0000   1.0000   1.0000
     1.0000   1.0000   1.0000   1.0000   1.0000   1.0000   1.0000   1.0000
     1.0000   1.0000   1.0000   1.0000   1.0000   1.0000   1.0000   1.0000
     1.0000   1.0000   1.0000   1.0000   1.0000   1.0000   1.0000   1.0000
     1.0000   1.0000   1.0000   1.0000   1.0000   1.0000   1.0000   1.0000
     1.0000   1.0000   1.0000   1.0000   1.0000   1.0000   1.0000   1.0000
     1.0000   1.0000   1.0000   1.0000   1.0000   1.0000   1.0000   1.0000
     1.0000   1.0000   1.0000   1.0000   1.0000   1.0000   1.0000   1.0000
     1.0000   1.0000   1.0000   1.0000   1.0000   1.0000   1.0000   1.0000
     1.0000   1.0000   1.0000   1.0000   1.0000   1.0000   1.0000   1.0000
     1.0000   1.0000   1.0000   1.0000   1.0000   1.0000   1.0000   1.0000
     1.0000   1.0000   1.0000   1.0000   1.0000   1.0000   1.0000   1.0000
     1.0000   1.0000   1.0000   1.0000   1.0000   1.0000   1.0000   1.0000
     1.0000   1.0000   1.0000   1.0000   1.0000   1.0000   1.0000   1.0000
     1.0000   1.0000   1.0000   1.0000   1.0000   1.0000   1.0000   1.0000
     1.0000   1.0000   1.0000   1.0000   1.0000   1.0000   1.0000   1.0000
     1.0000   1.0000   1.0000   1.0000   1.0000   1.0000   1.0000   1.0000
     1.0000   1.0000   1.0000   1.0000   1.0000   1.0000   1.0000   1.0000
     1.0000   1.0000   1.0000   1.0000   1.0000   1.0000   1.0000   1.0000
     1.0000   1.0000   1.0000   1.0000   1.0000   1.0000   1.0000   1.0000
     1.0000   1.0000   1.0000   1.0000   1.0000   1.0000   1.0000   1.0000
     1.0000   1.0000   1.0000   1.0000   1.0000   1.0000   1.0000   1.0000
     1.0000   1.0000   1.0000   1.0000   1.0000   1.0000   1.0000   1.0000
     0.0000   0.0000   0.0000   0.0000   0.0000   0.0000   0.0000   0.0000
     0.0000   0.0000   0.0000   0.0000   0.0000   0.0000   0.0000   0.0000
     0.0000   0.0000   0.0000   0.0000   0.0000   0.0000   0.0000   0.0000
     0.0000   0.0000   0.0000   0.0000   0.0000   0.0000   0.0000   0.0000
     0.0000   0.0000   0.0000   0.0000   0.0000   0.0000   0.0000   0.0000
     0.0000   0.0000   0.0000   0.0000   0.0000   0.0000   0.0000   0.0000
     0.0000   0.0000   0.0000   0.0000   0.0000   0.0000   0.0000   0.0000
     0.0000

[...]

          k = 0.2500-0.5000-0.5000 (158052 PWs)   bands (ev):

[...]

          k =-0.5000-0.5000-0.5000 (158408 PWs)   bands (ev):

    -7.0650  -7.0649  -7.0649  -7.0649  -7.0649  -7.0648  -7.0648  -7.0648
    -6.4729  -6.4729  -6.4729  -6.4729  -6.4729  -6.4729  -6.4728  -6.4728
    -6.4728  -6.4728  -6.4728  -6.4728  -6.4728  -6.4727  -6.4727  -6.4727
    -6.4727  -6.4727  -6.4727  -6.4727  -6.4727  -6.4727  -6.4727  -6.4727
    -1.4365  -1.4365  -1.4365  -1.4364  -1.4364  -1.4364  -1.4364  -1.4364
    -1.4363  -1.4363  -1.4363  -1.4362  -1.4362  -1.4362  -1.4362  -1.4362
    -1.3911  -1.3911  -1.3911  -1.3910  -1.3909  -1.3909  -1.3909  -1.3909
    -1.3847  -1.3847  -1.3847  -1.3847  -1.3847  -1.3846  -1.3846  -1.3846
    -1.3846  -1.3846  -1.3846  -1.3846  -1.3845  -1.3845  -1.3845  -1.3845
    -1.3845  -1.3845  -1.3845  -1.3845  -1.3844  -1.3844  -1.3844  -1.3844
    -1.3000  -1.3000  -1.3000  -1.2999  -1.2998  -1.2998  -1.2998  -1.2998
    -1.2998  -1.2998  -1.2997  -1.2997  -1.2997  -1.2997  -1.2997  -1.2997
    -1.2996  -1.2996  -1.2996  -1.2996  -1.2996  -1.2996  -1.2996  -1.2996
    -1.1936  -1.1936  -1.1935  -1.1935  -1.1935  -1.1935  -1.1935  -1.1935
    -1.1935  -1.1934  -1.1934  -1.1934  -1.1934  -1.1934  -1.1934  -1.1934
    -1.1934  -1.1934  -1.1934  -1.1934  -1.1933  -1.1933  -1.1933  -1.1933
    -1.0933  -1.0933  -1.0932  -1.0932  -1.0932  -1.0932  -1.0932  -1.0932
    -1.0931  -1.0931  -1.0931  -1.0931  -1.0931  -1.0931  -1.0931  -1.0931
    -1.0535  -1.0535  -1.0533  -1.0533  -1.0533  -1.0533  -1.0532  -1.0532
    -1.0532  -1.0532  -1.0532  -1.0532  -1.0532  -1.0532  -1.0532  -1.0531
    -1.0531  -1.0531  -1.0531  -1.0530  -1.0530  -1.0530  -1.0530  -1.0530
    -0.8599  -0.8599  -0.8599  -0.8598  -0.8598  -0.8598  -0.8597  -0.8597
    -0.8597  -0.8597  -0.8597  -0.8597  -0.8596  -0.8596  -0.8596  -0.8596
    -0.8596  -0.8596  -0.8596  -0.8596  -0.8596  -0.8596  -0.8596  -0.8596
     1.0630   1.0631   1.0631   1.0631   1.0631   1.0631   1.0631   1.0631
     1.0631   1.0631   1.0631   1.0631   1.0631   1.0631   1.0631   1.0631
     1.0631   1.0631   1.0631   1.0631   1.0631   1.0632   1.0632   1.0632
     2.6550   2.6550   2.6550   2.6550   2.6550   2.6550   2.6550   2.6550
     3.1560   3.1560   3.1560   3.1560   3.1560   3.1560   3.1560   3.1560
     3.1560   3.1560   3.1560   3.1560   3.1560   3.1560   3.1560   3.1560
     3.1560   3.1560   3.1560   3.1560   3.1561   3.1561   3.1561   3.1561
     3.9547   3.9547   3.9547   3.9547   3.9547   3.9547   3.9547   3.9547
     3.9547   3.9547   3.9547   3.9547   3.9547   3.9547   3.9547   3.9547
     3.9547   3.9547   3.9547   3.9547   3.9548   3.9548   3.9548   3.9548
     5.0270   5.0270   5.0270   5.0271   5.0271   5.0271   5.0271   5.0271
     5.0271   5.0271   5.0271   5.0271   5.0271   5.0271   5.0271   5.0271
     8.9505   8.9506   8.9506   8.9506   8.9506   8.9506   8.9506   8.9506
     9.8585   9.8585   9.8585   9.8585   9.8586   9.8586   9.8586   9.8586
     9.8586   9.8586   9.8586   9.8586   9.8586   9.8586   9.8586   9.8586
     9.8586   9.8586   9.8586   9.8586   9.8586   9.8586   9.8586   9.8586
    11.4663  11.4664  11.4664  11.4664  11.4664  11.4664  11.4664  11.4664
    11.4664  11.4664  11.4664  11.4664  11.4664  11.4664  11.4664  11.4664
    11.4664  11.4664  11.4664  11.4664  11.4664  11.4664  11.4665  11.4665
    12.4142

     occupation numbers
     1.0000   1.0000   1.0000   1.0000   1.0000   1.0000   1.0000   1.0000
     1.0000   1.0000   1.0000   1.0000   1.0000   1.0000   1.0000   1.0000
     1.0000   1.0000   1.0000   1.0000   1.0000   1.0000   1.0000   1.0000
     1.0000   1.0000   1.0000   1.0000   1.0000   1.0000   1.0000   1.0000
     1.0000   1.0000   1.0000   1.0000   1.0000   1.0000   1.0000   1.0000
     1.0000   1.0000   1.0000   1.0000   1.0000   1.0000   1.0000   1.0000
     1.0000   1.0000   1.0000   1.0000   1.0000   1.0000   1.0000   1.0000
     1.0000   1.0000   1.0000   1.0000   1.0000   1.0000   1.0000   1.0000
     1.0000   1.0000   1.0000   1.0000   1.0000   1.0000   1.0000   1.0000
     1.0000   1.0000   1.0000   1.0000   1.0000   1.0000   1.0000   1.0000
     1.0000   1.0000   1.0000   1.0000   1.0000   1.0000   1.0000   1.0000
     1.0000   1.0000   1.0000   1.0000   1.0000   1.0000   1.0000   1.0000
     1.0000   1.0000   1.0000   1.0000   1.0000   1.0000   1.0000   1.0000
     1.0000   1.0000   1.0000   1.0000   1.0000   1.0000   1.0000   1.0000
     1.0000   1.0000   1.0000   1.0000   1.0000   1.0000   1.0000   1.0000
     1.0000   1.0000   1.0000   1.0000   1.0000   1.0000   1.0000   1.0000
     1.0000   1.0000   1.0000   1.0000   1.0000   1.0000   1.0000   1.0000
     1.0000   1.0000   1.0000   1.0000   1.0000   1.0000   1.0000   1.0000
     1.0000   1.0000   1.0000   1.0000   1.0000   1.0000   1.0000   1.0000
     1.0000   1.0000   1.0000   1.0000   1.0000   1.0000   1.0000   1.0000
     1.0000   1.0000   1.0000   1.0000   1.0000   1.0000   1.0000   1.0000
     1.0000   1.0000   1.0000   1.0000   1.0000   1.0000   1.0000   1.0000
     1.0000   1.0000   1.0000   1.0000   1.0000   1.0000   1.0000   1.0000
     1.0000   1.0000   1.0000   1.0000   1.0000   1.0000   1.0000   1.0000
     1.0000   1.0000   1.0000   1.0000   1.0000   1.0000   1.0000   1.0000
     1.0000   1.0000   1.0000   1.0000   1.0000   1.0000   1.0000   1.0000
     1.0000   1.0000   1.0000   1.0000   1.0000   1.0000   1.0000   1.0000
     1.0000   1.0000   1.0000   1.0000   1.0000   1.0000   1.0000   1.0000
     1.0000   1.0000   1.0000   1.0000   1.0000   1.0000   1.0000   1.0000
     1.0000   1.0000   1.0000   1.0000   1.0000   1.0000   1.0000   1.0000
     1.0000   1.0000   1.0000   1.0000   1.0000   1.0000   1.0000   1.0000
     1.0000   1.0000   1.0000   1.0000   1.0000   1.0000   1.0000   1.0000
     1.0000   1.0000   1.0000   1.0000   1.0000   1.0000   1.0000   1.0000
     1.0000   1.0000   1.0000   1.0000   1.0000   1.0000   1.0000   1.0000
     1.0000   1.0000   1.0000   1.0000   1.0000   1.0000   1.0000   1.0000
     1.0000   1.0000   1.0000   1.0000   1.0000   1.0000   1.0000   1.0000
     0.0000   0.0000   0.0000   0.0000   0.0000   0.0000   0.0000   0.0000
     0.0000   0.0000   0.0000   0.0000   0.0000   0.0000   0.0000   0.0000
     0.0000   0.0000   0.0000   0.0000   0.0000   0.0000   0.0000   0.0000
     0.0000   0.0000   0.0000   0.0000   0.0000   0.0000   0.0000   0.0000
     0.0000   0.0000   0.0000   0.0000   0.0000   0.0000   0.0000   0.0000
     0.0000   0.0000   0.0000   0.0000   0.0000   0.0000   0.0000   0.0000
     0.0000   0.0000   0.0000   0.0000   0.0000   0.0000   0.0000   0.0000
     0.0000

     highest occupied, lowest unoccupied level (ev):     5.4726    7.5621

!    total energy              =   -9924.27571147 Ry
     total all-electron energy =   -140500.216299 Ry
     estimated scf accuracy    <       0.00000051 Ry

     The total energy is the sum of the following terms:
     one-electron contribution =   -2755.89931806 Ry
     hartree contribution      =    1963.56753266 Ry
     xc contribution           =   -1675.15285808 Ry
     ewald contribution        =   -2927.19912172 Ry
     Hubbard energy            =       0.09758300 Ry
     one-center paw contrib.   =   -4529.68952927 Ry
      -> PAW hartree energy AE =     123.43475259 Ry
      -> PAW hartree energy PS =    -122.79116871 Ry
      -> PAW xc energy AE      =    -143.22805711 Ry
      -> PAW xc energy PS      =      47.16603619 Ry
      -> total E_H with PAW    =    1964.21111655 Ry
      -> total E_XC with PAW   =   -1771.21487900 Ry

     convergence has been achieved in   9 iterations

     Writing all to output data dir ./out/ZnS_hub.save/

     General routines

     Parallel routines

     Hubbard U routines

     PAW routines

   This run was terminated on:  11: 3: 4   1Jul2024

   JOB DONE.