     Program PWSCF v.7.2 starts on  5Jul2024 at 10:27:21

     Reading input from 2.Ni_in_ZnS.scf.q0.in

     Current dimensions of program PWSCF are:
     Max number of different atomic species (ntypx) = 10
     Max number of k-points (npk) =  40000
     Max angular momentum in pseudopotentials (lmaxx) =  4
     file S.pbe-n-kjpaw_psl.1.0.0.UPF: wavefunction(s)  3S 3P renormalized
     file Zn.pbe-dnl-kjpaw_psl.1.0.0.UPF: wavefunction(s)  4S 3D renormalized
     file Ni.pbe-spn-kjpaw_psl.1.0.0.UPF: wavefunction(s)  3P 3D renormalized

     K-points division:     npool     =      10
     R & G space division:  proc/nbgrp/npool/nimage =     112
     Subspace diagonalization in iterative solution of the eigenvalue problem:
     one sub-group per band group will be used

     Using Slab Decomposition

     bravais-lattice index     =            1
     lattice parameter (alat)  =      20.5686  a.u.
     unit-cell volume          =    8701.8437 (a.u.)^3
     number of atoms/cell      =           64
     number of atomic types    =            3
     number of electrons       =       582.00
     number of Kohn-Sham states=          349
     kinetic-energy cutoff     =     150.0000  Ry
     charge density cutoff     =     600.0000  Ry
     scf convergence threshold =      1.0E-08
     mixing beta               =       0.7000
     number of iterations used =            8  plain     mixing
     Exchange-correlation= SLA  PW   PBX  PBC
                           (   1   4   3   4   0   0   0)

     celldm(1)=  20.568554  celldm(2)=   0.000000  celldm(3)=   0.000000
     celldm(4)=   0.000000  celldm(5)=   0.000000  celldm(6)=   0.000000

     crystal axes: (cart. coord. in units of alat)
               a(1) = (   1.000000   0.000000   0.000000 )
               a(2) = (   0.000000   1.000000   0.000000 )
               a(3) = (   0.000000   0.000000   1.000000 )

     reciprocal axes: (cart. coord. in units 2 pi/alat)
               b(1) = (  1.000000  0.000000  0.000000 )
               b(2) = (  0.000000  1.000000  0.000000 )
               b(3) = (  0.000000  0.000000  1.000000 )

     PseudoPot. # 1 for S  read from file:
     /arf/home/amuhaymin/pseudo/S.pbe-n-kjpaw_psl.1.0.0.UPF
     MD5 check sum: fb45dfebcf3e72a4e1bd4a866ec2e262
     Pseudo is Projector augmented-wave + core cor, Zval =  6.0
     Generated using &quot;atomic&quot; code by A. Dal Corso  v.6.3
     Shape of augmentation charge: PSQ
     Using radial grid of 1151 points,  6 beta functions with:
                l(1) =   0
                l(2) =   0
                l(3) =   1
                l(4) =   1
                l(5) =   2
                l(6) =   2
     Q(r) pseudized with 0 coefficients

     PseudoPot. # 2 for Zn read from file:
     /arf/home/amuhaymin/pseudo/Zn.pbe-dnl-kjpaw_psl.1.0.0.UPF
     MD5 check sum: c608214d9520ac179f507641260889e3
     Pseudo is Projector augmented-wave + core cor, Zval = 12.0
     Generated using &quot;atomic&quot; code by A. Dal Corso  v.6.2.2
     Shape of augmentation charge: PSQ
     Using radial grid of 1201 points,  6 beta functions with:
                l(1) =   0
                l(2) =   0
                l(3) =   1
                l(4) =   1
                l(5) =   2
                l(6) =   2
     Q(r) pseudized with 0 coefficients

     PseudoPot. # 3 for Ni read from file:
     /arf/home/amuhaymin/pseudo/Ni.pbe-spn-kjpaw_psl.1.0.0.UPF
     MD5 check sum: 6e86b733589c3ad8389697b807d86aa7
     Pseudo is Projector augmented-wave + core cor, Zval = 18.0
     Generated using &quot;atomic&quot; code by A. Dal Corso  v.6.3
     Shape of augmentation charge: PSQ
     Using radial grid of 1195 points,  6 beta functions with:
                l(1) =   0
                l(2) =   0
                l(3) =   1
                l(4) =   1
                l(5) =   2
                l(6) =   2
     Q(r) pseudized with 0 coefficients

     atomic species   valence    mass     pseudopotential
        S              6.00    32.06500     S ( 1.00)
        Zn            12.00    65.38000     Zn( 1.00)
        Ni            18.00    63.54600     Ni( 1.00)

     Starting magnetic structure
     atomic species   magnetization
        S            0.000
        Zn           0.000
        Ni           0.111

     24 Sym. Ops. (no inversion) found

                                    s                        frac. trans.

      isym =  1     identity

 cryst.   s( 1) = (     1          0          0      )
                  (     0          1          0      )
                  (     0          0          1      )

 cart.    s( 1) = (  1.0000000  0.0000000  0.0000000 )
                  (  0.0000000  1.0000000  0.0000000 )
                  (  0.0000000  0.0000000  1.0000000 )

      isym =  2     180 deg rotation - cart. axis [0,0,1]

[...]

 cryst.   s( 9) = (     0          1          0      )
                  (     0          0          1      )
                  (     1          0          0      )

 cart.    s( 9) = (  0.0000000  0.0000000  1.0000000 )
                  (  1.0000000  0.0000000  0.0000000 )
                  (  0.0000000  1.0000000  0.0000000 )

[...]

 cryst.   s(10) = (     0         -1          0      )
                  (     0          0         -1      )
                  (     1          0          0      )

 cart.    s(10) = (  0.0000000  0.0000000  1.0000000 )
                  ( -1.0000000  0.0000000  0.0000000 )
                  (  0.0000000 -1.0000000  0.0000000 )

[...]

      isym = 12     120 deg rotation - cart. axis [-1,-1,1]

[...]

      isym = 13     inv. 180 deg rotation - cart. axis [1,1,0]

[...]

      isym = 24     inv.  90 deg rotation - cart. axis [1,0,0]

 cryst.   s(24) = (    -1          0          0      )
                  (     0          0         -1      )
                  (     0          1          0      )

 cart.    s(24) = ( -1.0000000  0.0000000  0.0000000 )
                  (  0.0000000  0.0000000  1.0000000 )
                  (  0.0000000 -1.0000000  0.0000000 )

     point group T_d (-43m)
     there are  5 classes
     the character table:

       E     8C3   3C2   6S4   6s_d
A_1    1.00  1.00  1.00  1.00  1.00
A_2    1.00  1.00  1.00 -1.00 -1.00
E      2.00 -1.00  2.00  0.00  0.00
T_1    3.00  0.00 -1.00  1.00 -1.00
T_2    3.00  0.00 -1.00 -1.00  1.00

     the symmetry operations in each class and the name of the first element:

     E        1
          identity
     8C3      5    7    8    6   12    9   10   11
          120 deg rotation - cart. axis [-1,-1,-1]
     3C2      2    3    4
          180 deg rotation - cart. axis [0,0,1]
     6S4     15   16   20   19   23   24
          inv.  90 deg rotation - cart. axis [0,0,-1]
     6s_d    13   14   17   18   21   22
          inv. 180 deg rotation - cart. axis [1,1,0]

   Cartesian axes

     site n.     atom                  positions (alat units)
         1           Zn  tau(   1) = (   0.0000000   0.0000000   0.0000000  )
         2           Zn  tau(   2) = (   0.0000731   0.2501706   0.2501706  )
         3           Zn  tau(   3) = (   0.2501706   0.0000731   0.2501706  )
         4           Zn  tau(   4) = (   0.2501706   0.2501706   0.0000731  )
         5           S   tau(   5) = (   0.1252498   0.3751386   0.3751386  )
         6           S   tau(   6) = (   0.1250410   0.1250410   0.1250410  )
         7           S   tau(   7) = (   0.3751386   0.3751386   0.1252498  )
         8           S   tau(   8) = (   0.3751386   0.1252498   0.3751386  )
         9           Zn  tau(   9) = (   0.0000000   0.0000000   0.5000000  )
        10           Zn  tau(  10) = (  -0.0000731   0.2501706   0.7498294  )
        11           Zn  tau(  11) = (   0.2501706  -0.0000731   0.7498294  )
        12           Zn  tau(  12) = (   0.2513317   0.2513317   0.5004018  )
        13           S   tau(  13) = (   0.1254942   0.3752035   0.8745058  )
        14           S   tau(  14) = (   0.1254942   0.1254942   0.6247965  )
        15           S   tau(  15) = (   0.3785491   0.3785491   0.6214509  )
        16           S   tau(  16) = (   0.3752035   0.1254942   0.8745058  )
        17           Zn  tau(  17) = (   0.0000000   0.5000000   0.0000000  )
        18           Zn  tau(  18) = (  -0.0000731   0.7498294   0.2501706  )
        19           Zn  tau(  19) = (   0.2513317   0.5004018   0.2513317  )
        20           Zn  tau(  20) = (   0.2501706   0.7498294  -0.0000731  )
        21           S   tau(  21) = (   0.1254942   0.8745058   0.3752035  )
        22           S   tau(  22) = (   0.1254942   0.6247965   0.1254942  )
        23           S   tau(  23) = (   0.3752035   0.8745058   0.1254942  )
        24           S   tau(  24) = (   0.3785491   0.6214509   0.3785491  )
        25           Zn  tau(  25) = (   0.0000000   0.5000000   0.5000000  )
        26           Zn  tau(  26) = (   0.0000731   0.7498294   0.7498294  )
        27           Zn  tau(  27) = (   0.2513317   0.4995982   0.7486683  )
        28           Zn  tau(  28) = (   0.2513317   0.7486683   0.4995982  )
        29           S   tau(  29) = (   0.1250410   0.8749590   0.8749590  )
        30           S   tau(  30) = (   0.1252498   0.6248614   0.6248614  )
        31           S   tau(  31) = (   0.3751386   0.8747502   0.6248614  )
        32           S   tau(  32) = (   0.3751386   0.6248614   0.8747502  )
        33           Zn  tau(  33) = (   0.5000000   0.0000000   0.0000000  )
        34           Zn  tau(  34) = (   0.5004018   0.2513317   0.2513317  )
        35           Zn  tau(  35) = (   0.7498294  -0.0000731   0.2501706  )
        36           Zn  tau(  36) = (   0.7498294   0.2501706  -0.0000731  )
        37           S   tau(  37) = (   0.6214509   0.3785491   0.3785491  )
        38           S   tau(  38) = (   0.6247965   0.1254942   0.1254942  )
        39           S   tau(  39) = (   0.8745058   0.3752035   0.1254942  )
        40           S   tau(  40) = (   0.8745058   0.1254942   0.3752035  )
        41           Zn  tau(  41) = (   0.5000000   0.0000000   0.5000000  )
        42           Zn  tau(  42) = (   0.4995982   0.2513317   0.7486683  )
        43           Zn  tau(  43) = (   0.7498294   0.0000731   0.7498294  )
        44           Zn  tau(  44) = (   0.7486683   0.2513317   0.4995982  )
        45           S   tau(  45) = (   0.6248614   0.3751386   0.8747502  )
        46           S   tau(  46) = (   0.6248614   0.1252498   0.6248614  )
        47           S   tau(  47) = (   0.8747502   0.3751386   0.6248614  )
        48           S   tau(  48) = (   0.8749590   0.1250410   0.8749590  )
        49           Zn  tau(  49) = (   0.5000000   0.5000000   0.0000000  )
        50           Zn  tau(  50) = (   0.4995982   0.7486683   0.2513317  )
        51           Zn  tau(  51) = (   0.7486683   0.4995982   0.2513317  )
        52           Zn  tau(  52) = (   0.7498294   0.7498294   0.0000731  )
        53           S   tau(  53) = (   0.6248614   0.8747502   0.3751386  )
        54           S   tau(  54) = (   0.6248614   0.6248614   0.1252498  )
        55           S   tau(  55) = (   0.8749590   0.8749590   0.1250410  )
[...]
     atom  30 (R=0.087)  charge=  3.7949  magn=  0.0015
     atom  31 (R=0.087)  charge=  3.7949  magn=  0.0015
     atom  32 (R=0.087)  charge=  3.7949  magn=  0.0015
     atom  33 (R=0.089)  charge= 10.1558  magn=  0.0013
     atom  34 (R=0.089)  charge= 10.1572  magn=  0.0037
     atom  35 (R=0.089)  charge= 10.1582  magn=  0.0003
     atom  36 (R=0.089)  charge= 10.1582  magn=  0.0003
     atom  37 (R=0.087)  charge=  3.7872  magn=  0.0750
     atom  38 (R=0.087)  charge=  3.7920  magn=  0.0068
     atom  39 (R=0.087)  charge=  3.7920  magn=  0.0068
     atom  40 (R=0.087)  charge=  3.7920  magn=  0.0068
     atom  41 (R=0.089)  charge= 10.1598  magn=  0.0001
     atom  42 (R=0.089)  charge= 10.1572  magn=  0.0037
     atom  43 (R=0.089)  charge= 10.1582  magn=  0.0003
     atom  44 (R=0.089)  charge= 10.1572  magn=  0.0037
     atom  45 (R=0.087)  charge=  3.7949  magn=  0.0015
     atom  46 (R=0.087)  charge=  3.7949  magn=  0.0015
     atom  47 (R=0.087)  charge=  3.7949  magn=  0.0015
     atom  48 (R=0.087)  charge=  3.7943  magn=  0.0018
     atom  49 (R=0.089)  charge= 10.1598  magn=  0.0001
     atom  50 (R=0.089)  charge= 10.1572  magn=  0.0037
     atom  51 (R=0.089)  charge= 10.1572  magn=  0.0037
     atom  52 (R=0.089)  charge= 10.1582  magn=  0.0003
     atom  53 (R=0.087)  charge=  3.7949  magn=  0.0015
     atom  54 (R=0.087)  charge=  3.7949  magn=  0.0015
     atom  55 (R=0.087)  charge=  3.7943  magn=  0.0018
     atom  56 (R=0.087)  charge=  3.7949  magn=  0.0015
     atom  57 (R=0.087)  charge= 16.1404  magn=  1.2272
     atom  58 (R=0.089)  charge= 10.1572  magn=  0.0037
     atom  59 (R=0.089)  charge= 10.1572  magn=  0.0037
     atom  60 (R=0.089)  charge= 10.1572  magn=  0.0037
     atom  61 (R=0.087)  charge=  3.7920  magn=  0.0068
     atom  62 (R=0.087)  charge=  3.7872  magn=  0.0750
     atom  63 (R=0.087)  charge=  3.7920  magn=  0.0068
     atom  64 (R=0.087)  charge=  3.7920  magn=  0.0068

     End of self-consistent calculation

 ------ SPIN UP ------------

          k = 0.0000 0.0000 0.0000 (269825 PWs)   bands (ev):

   -97.8668 -58.2497 -58.2497 -58.2497  -7.4453  -6.9236  -6.9039  -6.9039
    -6.9039  -6.8993  -6.8993  -6.6001  -6.5937  -6.5937  -6.5937  -6.5783
    -6.5783  -6.5783  -6.5778  -6.5778  -6.5778  -6.5763  -6.5763  -6.5592
    -6.5592  -6.5592  -6.5567  -6.2637  -6.2637  -6.2637  -6.2581  -6.2581
    -6.2581  -6.2488  -6.2488  -6.2488  -0.6988  -0.6973  -0.6973  -0.6941
    -0.6941  -0.6941  -0.6654  -0.6631  -0.6631  -0.6504  -0.6504  -0.6504
    -0.5498  -0.5498  -0.5498  -0.5491  -0.5491  -0.5476  -0.5476  -0.5476
    -0.5400  -0.5398  -0.5398  -0.5398  -0.5373  -0.5373  -0.5373  -0.5350
    -0.5350  -0.5321  -0.5321  -0.5321  -0.5298  -0.5266  -0.5266  -0.5266
    -0.5201  -0.5201  -0.5201  -0.5180  -0.5180  -0.5180  -0.5170  -0.5170
    -0.5170  -0.5141  -0.5141  -0.5125  -0.5125  -0.5125  -0.5086  -0.5086
    -0.5086  -0.5048  -0.5048  -0.5048  -0.5046  -0.4820  -0.4820  -0.4315
    -0.4315  -0.4315  -0.3891  -0.3891  -0.3891  -0.3849  -0.3849  -0.3849
    -0.3790  -0.3790  -0.3790  -0.3788  -0.3788  -0.3788  -0.3707  -0.3707
    -0.3690  -0.3466  -0.3466  -0.3466  -0.3280  -0.3280  -0.3280  -0.2458
    -0.2458  -0.2458  -0.2351  -0.2351  -0.2351  -0.2337  -0.2281  -0.2281
    -0.2180  -0.2174  -0.2174  -0.2165  -0.2165  -0.2165  -0.2155  -0.2111
    -0.2111  -0.1984  -0.1984  -0.1984  -0.1936  -0.1935  -0.1935  -0.1935
    -0.1931  -0.1931  -0.1931  -0.1854  -0.1854  -0.1682  -0.1682  -0.1599
    -0.1599  -0.1599  -0.1499  -0.1499  -0.1499  -0.1467  -0.1467  -0.1445
    -0.1445  -0.1445  -0.1422  -0.1371  -0.1371  -0.1371  -0.1343  -0.1343
    -0.1198  -0.1198  -0.1198  -0.1191  -0.1191  -0.1191  -0.1176  -0.1088
    -0.1088  -0.1071  -0.0292  -0.0292  -0.0292   0.0172   0.0254   0.0254
     0.0254   0.1539   0.1539   0.1539   0.1984   0.1984   0.1984   0.4033
     0.4033   0.4033   0.4391   1.0408   1.0408   1.0769   1.0769   1.0769
     1.0807   1.0807   1.0846   1.1726   1.4900   1.4900   1.4900   1.6817
     1.6817   1.6817   1.6827   1.6827   1.6895   1.6895   1.6895   1.8372
     2.5101   2.5101   2.5101   2.6903   2.6903   2.9070   2.9070   2.9070
     2.9198   2.9198   2.9198   2.9419   2.9520   2.9520   2.9520   3.0017
     3.0017   3.0832   3.0902   3.0902   3.0929   3.0929   3.0929   3.1205
     3.1205   3.1205   3.1353   3.1353   3.1353   3.1664   3.3483   3.3483
     3.3483   3.4079   3.4079   3.4079   3.6241   3.6241   3.6241   4.0915
     4.0915   4.3570   4.3570   4.3570   4.3610   4.3610   4.3610   4.3713
     4.3713   4.3713   4.4831   4.4831   4.4831   4.6799   4.6799   4.6799
     4.6927   4.6927   4.6927   4.6929   4.7049   4.7049   4.7049   4.7072
     4.7072   4.7147   4.7147   4.7147   4.9963   4.9963   5.1534   5.1534
     5.1534   5.7055   5.7055   5.7055   7.5859   8.8159   8.8159   8.8159
     8.8849   9.0323   9.0323   9.0323   9.6300   9.6300   9.6616   9.9717
     9.9717   9.9866   9.9866   9.9866  10.0275  10.1287  10.1287  10.1433
    10.1433  10.1433  10.1562  10.3132  10.3132  10.3132  10.3157  10.3157
    10.3157  10.3166  10.3166  10.3266  10.3266  10.3266  10.7561  11.2296
    11.2296  11.2296  11.3055  11.3055  11.3055  11.4606  11.4606  11.4606
    11.4625  11.4625  11.8662  11.9550  11.9550  11.9551  12.1692  12.1692
    12.1692  12.1922  12.1927  12.1927  12.2038

     occupation numbers
     1.0000   1.0000   1.0000   1.0000   1.0000   1.0000   1.0000   1.0000
     1.0000   1.0000   1.0000   1.0000   1.0000   1.0000   1.0000   1.0000
     1.0000   1.0000   1.0000   1.0000   1.0000   1.0000   1.0000   1.0000
     1.0000   1.0000   1.0000   1.0000   1.0000   1.0000   1.0000   1.0000
     1.0000   1.0000   1.0000   1.0000   1.0000   1.0000   1.0000   1.0000
     1.0000   1.0000   1.0000   1.0000   1.0000   1.0000   1.0000   1.0000
     1.0000   1.0000   1.0000   1.0000   1.0000   1.0000   1.0000   1.0000
     1.0000   1.0000   1.0000   1.0000   1.0000   1.0000   1.0000   1.0000
     1.0000   1.0000   1.0000   1.0000   1.0000   1.0000   1.0000   1.0000
     1.0000   1.0000   1.0000   1.0000   1.0000   1.0000   1.0000   1.0000
     1.0000   1.0000   1.0000   1.0000   1.0000   1.0000   1.0000   1.0000
     1.0000   1.0000   1.0000   1.0000   1.0000   1.0000   1.0000   1.0000
     1.0000   1.0000   1.0000   1.0000   1.0000   1.0000   1.0000   1.0000
     1.0000   1.0000   1.0000   1.0000   1.0000   1.0000   1.0000   1.0000
     1.0000   1.0000   1.0000   1.0000   1.0000   1.0000   1.0000   1.0000
     1.0000   1.0000   1.0000   1.0000   1.0000   1.0000   1.0000   1.0000
     1.0000   1.0000   1.0000   1.0000   1.0000   1.0000   1.0000   1.0000
     1.0000   1.0000   1.0000   1.0000   1.0000   1.0000   1.0000   1.0000
     1.0000   1.0000   1.0000   1.0000   1.0000   1.0000   1.0000   1.0000
     1.0000   1.0000   1.0000   1.0000   1.0000   1.0000   1.0000   1.0000
     1.0000   1.0000   1.0000   1.0000   1.0000   1.0000   1.0000   1.0000
     1.0000   1.0000   1.0000   1.0000   1.0000   1.0000   1.0000   1.0000
     1.0000   1.0000   1.0000   1.0000   1.0000   1.0000   1.0000   1.0000
     1.0000   1.0000   1.0000   1.0000   1.0000   1.0000   1.0000   1.0000
     1.0000   1.0000   1.0000   1.0000   1.0000   1.0000   1.0000   1.0000
     1.0000   1.0000   1.0000   1.0000   1.0000   1.0000   1.0000   1.0000
     1.0000   1.0000   1.0000   1.0000   1.0000   1.0000   1.0000   1.0000
     1.0000   1.0000   1.0000   1.0000   1.0000   1.0000   1.0000   1.0000
     1.0000   1.0000   1.0000   1.0000   1.0000   1.0000   1.0000   1.0000
     1.0000   1.0000   1.0000   1.0000   1.0000   1.0000   1.0000   1.0000
     1.0000   1.0000   1.0000   1.0000   1.0000   1.0000   1.0000   1.0000
     1.0000   1.0000   1.0000   1.0000   1.0000   1.0000   1.0000   1.0000
     1.0000   1.0000   1.0000   1.0000   1.0000   1.0000   1.0000   1.0000
     1.0000   1.0000   1.0000   1.0000   1.0000   1.0000   1.0000   1.0000
     1.0000   1.0000   1.0000   1.0000   1.0000   1.0000   1.0000   1.0000
     1.0000   1.0000   1.0000   1.0000   1.0000   1.0000   1.0000   1.0000
     1.0000   1.0000   1.0000   1.0000   0.0000   0.0000   0.0000   0.0000
     0.0000   0.0000   0.0000   0.0000   0.0000   0.0000   0.0000   0.0000
     0.0000   0.0000   0.0000   0.0000   0.0000   0.0000   0.0000   0.0000
     0.0000   0.0000   0.0000   0.0000   0.0000   0.0000   0.0000   0.0000
     0.0000   0.0000   0.0000   0.0000   0.0000   0.0000   0.0000   0.0000
     0.0000   0.0000   0.0000   0.0000   0.0000   0.0000   0.0000   0.0000
     0.0000   0.0000   0.0000   0.0000   0.0000   0.0000   0.0000   0.0000
     0.0000   0.0000   0.0000   0.0000   0.0000

[...]

          k =-0.5000-0.5000-0.5000 (269968 PWs)   bands (ev):

[...]

 ------ SPIN DOWN ----------

[...]

          k = 0.2500-0.5000-0.5000 (269956 PWs)   bands (ev):

[...]

          k =-0.5000-0.5000-0.5000 (269968 PWs)   bands (ev):

   -96.3825 -56.7998 -56.7998 -56.7998  -7.0382  -7.0310  -7.0310  -7.0310
    -7.0214  -7.0214  -7.0214  -6.9933  -6.4206  -6.4206  -6.4206  -6.4175
    -6.4132  -6.4132  -6.4132  -6.4125  -6.4125  -6.4125  -6.4116  -6.4116
    -6.4068  -6.4068  -6.4065  -6.4065  -6.4065  -6.4054  -6.4054  -6.4054
    -6.3846  -6.3445  -6.3445  -6.3445  -0.6106  -0.6062  -0.6062  -0.6062
    -0.6055  -0.6055  -0.6055  -0.5958  -0.5952  -0.5952  -0.5952  -0.5941
    -0.5941  -0.5933  -0.5933  -0.5933  -0.5899  -0.5899  -0.5881  -0.5881
    -0.5881  -0.5795  -0.5792  -0.5792  -0.5792  -0.5745  -0.5745  -0.5745
    -0.5740  -0.5740  -0.5739  -0.5739  -0.5739  -0.5715  -0.5715  -0.5715
    -0.5698  -0.5698  -0.5698  -0.5689  -0.5689  -0.5689  -0.5415  -0.5195
    -0.5195  -0.5108  -0.5108  -0.5108  -0.4447  -0.4447  -0.4447  -0.4443
    -0.4415  -0.4415  -0.4415  -0.4404  -0.4404  -0.4404  -0.4396  -0.4396
    -0.4353  -0.4353  -0.4353  -0.4324  -0.4302  -0.4302  -0.4302  -0.4191
    -0.4191  -0.3667  -0.3667  -0.3667  -0.3294  -0.3294  -0.3294  -0.3290
    -0.3290  -0.3290  -0.3281  -0.3281  -0.3279  -0.3266  -0.3266  -0.3266
    -0.3247  -0.3247  -0.3247  -0.3240  -0.3240  -0.3240  -0.3066  -0.2980
    -0.2980  -0.1864  -0.1864  -0.1864  -0.1818  -0.1818  -0.1814  -0.1814
    -0.1814  -0.1786  -0.1786  -0.1786  -0.1727  -0.1727  -0.1727  -0.1642
    -0.1642  -0.1642  -0.1580  -0.1580  -0.1433  -0.1433  -0.1433  -0.1413
    -0.1413  -0.1408  -0.1374  -0.1374  -0.1374  -0.1349  -0.1349  -0.1349
    -0.1338  -0.1338  -0.1338  -0.1316  -0.1296  -0.1296  -0.1296  -0.0912
    -0.0912  -0.0912  -0.0313  -0.0313  -0.0221  -0.0221  -0.0221  -0.0208
    -0.0208  -0.0208  -0.0204  -0.0204  -0.0204  -0.0188  -0.0188  -0.0181
    -0.0170  -0.0170  -0.0170  -0.0155  -0.0155  -0.0155  -0.0059   1.0748
     1.0748   1.0748   1.1502   1.1502   1.1757   1.1816   1.1816   1.1816
     1.1829   1.1829   1.1829   1.1877   1.1877   1.1877   1.1891   1.1891
     1.1976   1.1976   1.1976   1.2050   1.2050   1.2050   1.5331   2.5937
     2.5937   2.5937   2.7828   2.7863   2.7863   2.7863   2.8871   2.9976
     2.9976   3.1110   3.1110   3.1110   3.2351   3.2351   3.2351   3.2392
     3.2393   3.2393   3.2482   3.2482   3.2482   3.2498   3.2498   3.2498
     3.2573   3.2573   3.2573   3.2624   3.2624   3.2624   3.3301   3.7572
     3.7572   3.7572   3.9182   3.9182   4.0075   4.0075   4.0075   4.0201
     4.0202   4.0202   4.0202   4.0252   4.0252   4.0252   4.0274   4.0274
     4.0274   4.0302   4.0302   4.0406   4.0507   4.0507   4.0507   4.6721
     4.6721   4.6721   4.8613   4.8613   5.0993   5.0993   5.0993   5.1083
     5.1083   5.1083   5.1107   5.1107   5.1252   5.1252   5.1252   5.4081
     5.4081   6.3721   6.3721   6.3721   8.9471   8.9508   8.9508   8.9508
     8.9735   8.9735   8.9735   9.1231   9.8665   9.8665   9.8665   9.8682
     9.8682   9.8701   9.8775   9.8775   9.8775   9.8794   9.8794   9.8794
     9.8906   9.8906   9.8906   9.8969   9.8969   9.8969   9.9080   9.9080
     9.9689   9.9689   9.9689  10.3107  11.4080  11.4080  11.4080  11.4629
    11.4630  11.4630  11.4704  11.4704  11.4704  11.4810  11.4843  11.4844
    11.4844  11.4901  11.4901  11.4901  11.4969  11.4970  11.5046  11.5046
    11.6110  11.6110  11.6110  12.1983  12.4220

     occupation numbers
     1.0000   1.0000   1.0000   1.0000   1.0000   1.0000   1.0000   1.0000
     1.0000   1.0000   1.0000   1.0000   1.0000   1.0000   1.0000   1.0000
     1.0000   1.0000   1.0000   1.0000   1.0000   1.0000   1.0000   1.0000
     1.0000   1.0000   1.0000   1.0000   1.0000   1.0000   1.0000   1.0000
     1.0000   1.0000   1.0000   1.0000   1.0000   1.0000   1.0000   1.0000
     1.0000   1.0000   1.0000   1.0000   1.0000   1.0000   1.0000   1.0000
     1.0000   1.0000   1.0000   1.0000   1.0000   1.0000   1.0000   1.0000
     1.0000   1.0000   1.0000   1.0000   1.0000   1.0000   1.0000   1.0000
     1.0000   1.0000   1.0000   1.0000   1.0000   1.0000   1.0000   1.0000
     1.0000   1.0000   1.0000   1.0000   1.0000   1.0000   1.0000   1.0000
     1.0000   1.0000   1.0000   1.0000   1.0000   1.0000   1.0000   1.0000
     1.0000   1.0000   1.0000   1.0000   1.0000   1.0000   1.0000   1.0000
     1.0000   1.0000   1.0000   1.0000   1.0000   1.0000   1.0000   1.0000
     1.0000   1.0000   1.0000   1.0000   1.0000   1.0000   1.0000   1.0000
     1.0000   1.0000   1.0000   1.0000   1.0000   1.0000   1.0000   1.0000
     1.0000   1.0000   1.0000   1.0000   1.0000   1.0000   1.0000   1.0000
     1.0000   1.0000   1.0000   1.0000   1.0000   1.0000   1.0000   1.0000
     1.0000   1.0000   1.0000   1.0000   1.0000   1.0000   1.0000   1.0000
     1.0000   1.0000   1.0000   1.0000   1.0000   1.0000   1.0000   1.0000
     1.0000   1.0000   1.0000   1.0000   1.0000   1.0000   1.0000   1.0000
     1.0000   1.0000   1.0000   1.0000   1.0000   1.0000   1.0000   1.0000
     1.0000   1.0000   1.0000   1.0000   1.0000   1.0000   1.0000   1.0000
     1.0000   1.0000   1.0000   1.0000   1.0000   1.0000   1.0000   1.0000
     1.0000   1.0000   1.0000   1.0000   1.0000   1.0000   1.0000   1.0000
     1.0000   1.0000   1.0000   1.0000   1.0000   1.0000   1.0000   1.0000
     1.0000   1.0000   1.0000   1.0000   1.0000   1.0000   1.0000   1.0000
     1.0000   1.0000   1.0000   1.0000   1.0000   1.0000   1.0000   1.0000
     1.0000   1.0000   1.0000   1.0000   1.0000   1.0000   1.0000   1.0000
     1.0000   1.0000   1.0000   1.0000   1.0000   1.0000   1.0000   1.0000
     1.0000   1.0000   1.0000   1.0000   1.0000   1.0000   1.0000   1.0000
     1.0000   1.0000   1.0000   1.0000   1.0000   1.0000   1.0000   1.0000
     1.0000   1.0000   1.0000   1.0000   1.0000   1.0000   1.0000   1.0000
     1.0000   1.0000   1.0000   1.0000   1.0000   1.0000   1.0000   1.0000
     1.0000   1.0000   1.0000   1.0000   1.0000   1.0000   1.0000   1.0000
     1.0000   1.0000   1.0000   1.0000   1.0000   1.0000   1.0000   1.0000
     1.0000   1.0000   1.0000   1.0000   1.0000   1.0000   1.0000   1.0000
     1.0000   0.0000   0.0000   0.0000   0.0000   0.0000   0.0000   0.0000
     0.0000   0.0000   0.0000   0.0000   0.0000   0.0000   0.0000   0.0000
     0.0000   0.0000   0.0000   0.0000   0.0000   0.0000   0.0000   0.0000
     0.0000   0.0000   0.0000   0.0000   0.0000   0.0000   0.0000   0.0000
     0.0000   0.0000   0.0000   0.0000   0.0000   0.0000   0.0000   0.0000
     0.0000   0.0000   0.0000   0.0000   0.0000   0.0000   0.0000   0.0000
     0.0000   0.0000   0.0000   0.0000   0.0000   0.0000   0.0000   0.0000
     0.0000   0.0000   0.0000   0.0000   0.0000

     the Fermi energy is     6.3078 ev

!    total energy              =  -10109.68200250 Ry
     total all-electron energy =   -139949.657675 Ry
     estimated scf accuracy    <          5.9E-09 Ry
     smearing contrib. (-TS)   =      -0.00013927 Ry
     internal energy E=F+TS    =  -10109.68186322 Ry

     The total energy is F=E-TS. E is the sum of the following terms:
     one-electron contribution =   -2996.13105352 Ry
     hartree contribution      =    2072.12184092 Ry
     xc contribution           =   -1661.66677886 Ry
     ewald contribution        =   -2998.64303613 Ry
     one-center paw contrib.   =   -4525.36283564 Ry
      -> PAW hartree energy AE =     123.25176748 Ry
      -> PAW hartree energy PS =    -122.60984637 Ry
      -> PAW xc energy AE      =    -143.20759650 Ry
      -> PAW xc energy PS      =      47.14621653 Ry
      -> total E_H with PAW    =    2072.76376203 Ry
      -> total E_XC with PAW   =   -1757.72815883 Ry

     total magnetization       =     2.00 Bohr mag/cell
     absolute magnetization    =     2.04 Bohr mag/cell

     convergence has been achieved in  17 iterations

     Writing all to output data dir ./out/Ni_q0.save/

     General routines

     Parallel routines

     PAW routines

   This run was terminated on:  10:31:35   5Jul2024

   JOB DONE.