     Program PWSCF v.7.2 starts on  7Jul2024 at  1: 5:24

     Reading input from 1.Fe_vac_in_ZnS.scf.q0.unrlxd.in

     Current dimensions of program PWSCF are:
     Max number of different atomic species (ntypx) = 10
     Max number of k-points (npk) =  40000
     Max angular momentum in pseudopotentials (lmaxx) =  4
     file S.pbe-n-kjpaw_psl.1.0.0.UPF: wavefunction(s)  3S 3P renormalized
     file Zn.pbe-dnl-kjpaw_psl.1.0.0.UPF: wavefunction(s)  4S 3D renormalized
     file Fe.pbe-spn-kjpaw_psl.1.0.0.UPF: wavefunction(s)  3P 3D renormalized

     K-points division:     npool     =       7
     R & G space division:  proc/nbgrp/npool/nimage =     112
     Subspace diagonalization in iterative solution of the eigenvalue problem:
     one sub-group per band group will be used

     Using Slab Decomposition

     bravais-lattice index     =            1
     lattice parameter (alat)  =      20.5686  a.u.
     unit-cell volume          =    8701.8437 (a.u.)^3
     number of atoms/cell      =           63
     number of atomic types    =            3
     number of electrons       =       574.00
     number of Kohn-Sham states=          344
     kinetic-energy cutoff     =     150.0000  Ry
     charge density cutoff     =     600.0000  Ry
     scf convergence threshold =      1.0E-08
     mixing beta               =       0.7000
     number of iterations used =            8  plain     mixing
     Exchange-correlation= SLA  PW   PBX  PBC
                           (   1   4   3   4   0   0   0)

     celldm(1)=  20.568554  celldm(2)=   0.000000  celldm(3)=   0.000000
     celldm(4)=   0.000000  celldm(5)=   0.000000  celldm(6)=   0.000000

     crystal axes: (cart. coord. in units of alat)
               a(1) = (   1.000000   0.000000   0.000000 )
               a(2) = (   0.000000   1.000000   0.000000 )
               a(3) = (   0.000000   0.000000   1.000000 )

     reciprocal axes: (cart. coord. in units 2 pi/alat)
               b(1) = (  1.000000  0.000000  0.000000 )
               b(2) = (  0.000000  1.000000  0.000000 )
               b(3) = (  0.000000  0.000000  1.000000 )

     PseudoPot. # 1 for S  read from file:
     /arf/home/amuhaymin/pseudo/S.pbe-n-kjpaw_psl.1.0.0.UPF
     MD5 check sum: fb45dfebcf3e72a4e1bd4a866ec2e262
     Pseudo is Projector augmented-wave + core cor, Zval =  6.0
     Generated using &quot;atomic&quot; code by A. Dal Corso  v.6.3
     Shape of augmentation charge: PSQ
     Using radial grid of 1151 points,  6 beta functions with:
                l(1) =   0
                l(2) =   0
                l(3) =   1
                l(4) =   1
                l(5) =   2
                l(6) =   2
     Q(r) pseudized with 0 coefficients

     PseudoPot. # 2 for Zn read from file:
     /arf/home/amuhaymin/pseudo/Zn.pbe-dnl-kjpaw_psl.1.0.0.UPF
     MD5 check sum: c608214d9520ac179f507641260889e3
     Pseudo is Projector augmented-wave + core cor, Zval = 12.0
     Generated using &quot;atomic&quot; code by A. Dal Corso  v.6.2.2
     Shape of augmentation charge: PSQ
     Using radial grid of 1201 points,  6 beta functions with:
                l(1) =   0
                l(2) =   0
                l(3) =   1
                l(4) =   1
                l(5) =   2
                l(6) =   2
     Q(r) pseudized with 0 coefficients

     PseudoPot. # 3 for Fe read from file:
     /arf/home/amuhaymin/pseudo/Fe.pbe-spn-kjpaw_psl.1.0.0.UPF
     MD5 check sum: fc81f059e5c5069939230b1155715ae8
     Pseudo is Projector augmented-wave + core cor, Zval = 16.0
     Generated using &quot;atomic&quot; code by A. Dal Corso  v.6.3
     Shape of augmentation charge: PSQ
     Using radial grid of 1191 points,  6 beta functions with:
                l(1) =   0
                l(2) =   0
                l(3) =   1
                l(4) =   1
                l(5) =   2
                l(6) =   2
     Q(r) pseudized with 0 coefficients

     atomic species   valence    mass     pseudopotential
        S              6.00    32.06500     S ( 1.00)
        Zn            12.00    65.38000     Zn( 1.00)
        Fe            16.00    63.54600     Fe( 1.00)

     Starting magnetic structure
     atomic species   magnetization
        S            0.000
        Zn           0.000
        Fe           0.250

      6 Sym. Ops. (no inversion) found

                                    s                        frac. trans.

      isym =  1     identity

 cryst.   s( 1) = (     1          0          0      )
                  (     0          1          0      )
                  (     0          0          1      )

 cart.    s( 1) = (  1.0000000  0.0000000  0.0000000 )
                  (  0.0000000  1.0000000  0.0000000 )
                  (  0.0000000  0.0000000  1.0000000 )

      isym =  2     120 deg rotation - cart. axis [-1,-1,-1]

[...]

      isym =  3     120 deg rotation - cart. axis [1,1,1]

[...]

      isym =  4     inv. 180 deg rotation - cart. axis [1,-1,0]

[...]

      isym =  6     inv. 180 deg rotation - cart. axis [0,1,-1]

 cryst.   s( 6) = (     1          0          0      )
                  (     0          0          1      )
                  (     0          1          0      )

 cart.    s( 6) = (  1.0000000  0.0000000  0.0000000 )
                  (  0.0000000  0.0000000  1.0000000 )
                  (  0.0000000  1.0000000  0.0000000 )

     point group C_3v (3m)
     there are  3 classes
     the character table:

       E     2C3   3s_v
A_1    1.00  1.00  1.00
A_2    1.00  1.00 -1.00
E      2.00 -1.00  0.00

     the symmetry operations in each class and the name of the first element:

     E        1
          identity
     2C3      2    3
          120 deg rotation - cart. axis [-1,-1,-1]
     3s_v     4    5    6
          inv. 180 deg rotation - cart. axis [1,-1,0]

   Cartesian axes

     site n.     atom                  positions (alat units)
         1           Zn  tau(   1) = (   0.0000000   0.0000000   0.0000000  )
         2           Zn  tau(   2) = (   0.0000000   0.2500000   0.2500000  )
         3           Zn  tau(   3) = (   0.2500000   0.0000000   0.2500000  )
         4           Zn  tau(   4) = (   0.2500000   0.2500000   0.0000000  )
         5           S   tau(   5) = (   0.1250000   0.3750000   0.3750000  )
         6           S   tau(   6) = (   0.1250000   0.1250000   0.1250000  )
         7           S   tau(   7) = (   0.3750000   0.3750000   0.1250000  )
         8           S   tau(   8) = (   0.3750000   0.1250000   0.3750000  )
         9           Zn  tau(   9) = (   0.0000000   0.0000000   0.5000000  )
        10           Zn  tau(  10) = (   0.0000000   0.2500000   0.7500000  )
        11           Zn  tau(  11) = (   0.2500000   0.0000000   0.7500000  )
        12           Zn  tau(  12) = (   0.2500000   0.2500000   0.5000000  )
        13           S   tau(  13) = (   0.1250000   0.3750000   0.8750000  )
        14           S   tau(  14) = (   0.1250000   0.1250000   0.6250000  )
        15           S   tau(  15) = (   0.3750000   0.3750000   0.6250000  )
        16           S   tau(  16) = (   0.3750000   0.1250000   0.8750000  )
        17           Zn  tau(  17) = (   0.0000000   0.5000000   0.0000000  )
        18           Zn  tau(  18) = (   0.0000000   0.7500000   0.2500000  )
        19           Zn  tau(  19) = (   0.2500000   0.5000000   0.2500000  )
        20           Zn  tau(  20) = (   0.2500000   0.7500000   0.0000000  )
        21           S   tau(  21) = (   0.1250000   0.8750000   0.3750000  )
        22           S   tau(  22) = (   0.1250000   0.6250000   0.1250000  )
        23           S   tau(  23) = (   0.3750000   0.8750000   0.1250000  )
        24           S   tau(  24) = (   0.3750000   0.6250000   0.3750000  )
        25           Zn  tau(  25) = (   0.0000000   0.5000000   0.5000000  )
        26           Zn  tau(  26) = (   0.0000000   0.7500000   0.7500000  )
        27           Zn  tau(  27) = (   0.2500000   0.5000000   0.7500000  )
        28           Zn  tau(  28) = (   0.2500000   0.7500000   0.5000000  )
        29           S   tau(  29) = (   0.1250000   0.8750000   0.8750000  )
        30           S   tau(  30) = (   0.1250000   0.6250000   0.6250000  )
        31           S   tau(  31) = (   0.3750000   0.8750000   0.6250000  )
        32           S   tau(  32) = (   0.3750000   0.6250000   0.8750000  )
        33           Zn  tau(  33) = (   0.5000000   0.0000000   0.0000000  )
        34           Zn  tau(  34) = (   0.5000000   0.2500000   0.2500000  )
        35           Zn  tau(  35) = (   0.7500000   0.0000000   0.2500000  )
        36           Zn  tau(  36) = (   0.7500000   0.2500000   0.0000000  )
        37           S   tau(  37) = (   0.6250000   0.3750000   0.3750000  )
        38           S   tau(  38) = (   0.6250000   0.1250000   0.1250000  )
        39           S   tau(  39) = (   0.8750000   0.3750000   0.1250000  )
        40           S   tau(  40) = (   0.8750000   0.1250000   0.3750000  )
        41           Zn  tau(  41) = (   0.5000000   0.0000000   0.5000000  )
        42           Zn  tau(  42) = (   0.5000000   0.2500000   0.7500000  )
        43           Zn  tau(  43) = (   0.7500000   0.0000000   0.7500000  )
        44           Zn  tau(  44) = (   0.7500000   0.2500000   0.5000000  )
        45           S   tau(  45) = (   0.6250000   0.3750000   0.8750000  )
        46           S   tau(  46) = (   0.6250000   0.1250000   0.6250000  )
        47           S   tau(  47) = (   0.8750000   0.3750000   0.6250000  )
        48           S   tau(  48) = (   0.8750000   0.1250000   0.8750000  )
        49           Zn  tau(  49) = (   0.5000000   0.5000000   0.0000000  )
        50           Zn  tau(  50) = (   0.5000000   0.7500000   0.2500000  )
        51           Zn  tau(  51) = (   0.7500000   0.5000000   0.2500000  )
        52           Zn  tau(  52) = (   0.7500000   0.7500000   0.0000000  )
        53           S   tau(  53) = (   0.6250000   0.8750000   0.3750000  )
        54           S   tau(  54) = (   0.6250000   0.6250000   0.1250000  )
        55           S   tau(  55) = (   0.8750000   0.8750000   0.1250000  )
        56           S   tau(  56) = (   0.8750000   0.6250000   0.3750000  )
        57           Fe  tau(  57) = (   0.5000000   0.5000000   0.5000000  )
        58           Zn  tau(  58) = (   0.5000000   0.7500000   0.7500000  )
        59           Zn  tau(  59) = (   0.7500000   0.5000000   0.7500000  )
        60           Zn  tau(  60) = (   0.7500000   0.7500000   0.5000000  )
        61           S   tau(  61) = (   0.6250000   0.8750000   0.8750000  )
        62           S   tau(  62) = (   0.8750000   0.8750000   0.6250000  )
        63           S   tau(  63) = (   0.8750000   0.6250000   0.8750000  )

   Crystallographic axes

     site n.     atom                  positions (cryst. coord.)
         1           Zn  tau(   1) = (  0.0000000  0.0000000  0.0000000  )
         2           Zn  tau(   2) = (  0.0000000  0.2500000  0.2500000  )
         3           Zn  tau(   3) = (  0.2500000  0.0000000  0.2500000  )
         4           Zn  tau(   4) = (  0.2500000  0.2500000  0.0000000  )
[...]
     atom  26 (R=0.089)  charge= 10.1592  magn=  0.0001
     atom  27 (R=0.089)  charge= 10.1594  magn=  0.0038
     atom  28 (R=0.089)  charge= 10.1594  magn=  0.0038
     atom  29 (R=0.089)  charge=  3.9935  magn=  0.0003
     atom  30 (R=0.089)  charge=  3.9933  magn=  0.0005
     atom  31 (R=0.089)  charge=  3.9897  magn=  0.0038
     atom  32 (R=0.089)  charge=  3.9897  magn=  0.0038
     atom  33 (R=0.089)  charge= 10.1603  magn=  0.0016
     atom  34 (R=0.089)  charge= 10.1596  magn=  0.0033
     atom  35 (R=0.089)  charge= 10.1600  magn=  0.0004
     atom  36 (R=0.089)  charge= 10.1600  magn=  0.0004
     atom  37 (R=0.089)  charge=  3.9954  magn=  0.0403
     atom  38 (R=0.089)  charge=  3.9927  magn=  0.0045
     atom  39 (R=0.089)  charge=  3.9934  magn=  0.0033
     atom  40 (R=0.089)  charge=  3.9934  magn=  0.0033
     atom  41 (R=0.089)  charge= 10.1594  magn=  0.0000
     atom  42 (R=0.089)  charge= 10.1594  magn=  0.0038
     atom  43 (R=0.089)  charge= 10.1592  magn=  0.0001
     atom  44 (R=0.089)  charge= 10.1594  magn=  0.0038
     atom  45 (R=0.089)  charge=  3.9897  magn=  0.0038
     atom  46 (R=0.089)  charge=  3.9933  magn=  0.0005
     atom  47 (R=0.089)  charge=  3.9897  magn=  0.0038
     atom  48 (R=0.089)  charge=  3.9935  magn=  0.0003
     atom  49 (R=0.089)  charge= 10.1594  magn=  0.0000
     atom  50 (R=0.089)  charge= 10.1594  magn=  0.0038
     atom  51 (R=0.089)  charge= 10.1594  magn=  0.0038
     atom  52 (R=0.089)  charge= 10.1592  magn=  0.0001
     atom  53 (R=0.089)  charge=  3.9897  magn=  0.0038
     atom  54 (R=0.089)  charge=  3.9933  magn=  0.0005
     atom  55 (R=0.089)  charge=  3.9935  magn=  0.0003
     atom  56 (R=0.089)  charge=  3.9897  magn=  0.0038
     atom  57 (R=0.089)  charge= 13.9625  magn=  3.1288
     atom  58 (R=0.089)  charge= 10.1224  magn=  0.0096
     atom  59 (R=0.089)  charge= 10.1224  magn=  0.0096
     atom  60 (R=0.089)  charge= 10.1224  magn=  0.0096
     atom  61 (R=0.089)  charge=  3.9900  magn=  0.0047
     atom  62 (R=0.089)  charge=  3.9900  magn=  0.0047
     atom  63 (R=0.089)  charge=  3.9900  magn=  0.0047

     End of self-consistent calculation

 ------ SPIN UP ------------

          k = 0.0000 0.0000 0.0000 (269825 PWs)   bands (ev):

   -82.3369 -48.4438 -48.4438 -48.3196  -7.5728  -7.0600  -7.0600  -7.0555
    -7.0555  -7.0432  -6.9769  -6.7408  -6.7408  -6.7408  -6.7392  -6.7375
    -6.7375  -6.7307  -6.7307  -6.7251  -6.7251  -6.7171  -6.7133  -6.7052
    -6.7052  -6.6893  -6.5045  -6.4168  -6.4168  -6.4105  -6.4048  -6.4012
    -6.4012  -6.3944  -6.3944  -0.8443  -0.8438  -0.8438  -0.8416  -0.8397
    -0.8397  -0.8082  -0.8082  -0.8003  -0.7963  -0.7932  -0.7932  -0.6962
    -0.6962  -0.6958  -0.6951  -0.6951  -0.6941  -0.6941  -0.6940  -0.6894
    -0.6868  -0.6847  -0.6847  -0.6842  -0.6838  -0.6838  -0.6806  -0.6806
    -0.6798  -0.6779  -0.6779  -0.6764  -0.6711  -0.6711  -0.6691  -0.6686
    -0.6686  -0.6660  -0.6630  -0.6630  -0.6629  -0.6621  -0.6621  -0.6598
    -0.6583  -0.6582  -0.6582  -0.6553  -0.6551  -0.6550  -0.6550  -0.6486
    -0.6486  -0.6474  -0.6422  -0.6422  -0.5884  -0.5884  -0.5694  -0.5694
    -0.5672  -0.5371  -0.5316  -0.5316  -0.5298  -0.5298  -0.5283  -0.5261
    -0.5228  -0.5228  -0.5185  -0.5185  -0.5143  -0.4965  -0.4965  -0.4902
    -0.4744  -0.4744  -0.4727  -0.4708  -0.4087  -0.4087  -0.3892  -0.3892
    -0.3830  -0.3767  -0.3748  -0.3748  -0.3668  -0.3613  -0.3605  -0.3605
    -0.3583  -0.3583  -0.3574  -0.3539  -0.3539  -0.3526  -0.3440  -0.3440
    -0.3424  -0.3409  -0.3362  -0.3362  -0.3330  -0.3330  -0.3313  -0.3300
    -0.3300  -0.3218  -0.3171  -0.3171  -0.3089  -0.3089  -0.3017  -0.2987
    -0.2987  -0.2961  -0.2961  -0.2947  -0.2918  -0.2900  -0.2864  -0.2864
    -0.2834  -0.2819  -0.2819  -0.2774  -0.2774  -0.2703  -0.2703  -0.2653
    -0.2603  -0.2505  -0.2504  -0.2504  -0.2428  -0.2428  -0.2373  -0.2268
    -0.2268  -0.2081  -0.1605  -0.1605  -0.1235  -0.1226  -0.1138  -0.1138
    -0.0106   0.0176   0.0176   0.0582   0.0582   0.0603   0.2496   0.3299
     0.3357   0.3357   0.8971   0.8971   0.9156   0.9271   0.9271   0.9316
     1.0569   1.0569   1.1194   1.2652   1.3962   1.3962   1.5237   1.5292
     1.5292   1.5307   1.5336   1.5336   1.7307   1.7307   1.9295   2.4169
     2.4169   2.6275   2.6499   2.6499   2.7508   2.7594   2.7726   2.7726
     2.7776   2.7827   2.7827   2.8247   2.8427   2.8427   2.8940   2.8940
     2.9256   2.9331   2.9331   2.9410   2.9410   2.9512   2.9770   2.9926
     2.9926   3.0601   3.1356   3.1356   3.1802   3.2266   3.2266   3.2601
     3.4671   3.4671   3.5058   3.7222   3.7222   4.0164   4.0164   4.0416
     4.2117   4.2169   4.2185   4.2185   4.2207   4.2207   4.3350   4.3350
     4.3456   4.3829   4.3829   4.4139   4.5311   4.5317   4.5352   4.5365
     4.5365   4.5524   4.5524   4.5589   4.5589   4.5598   4.5606   4.5606
     4.5700   4.7963   4.7963   5.0920   5.0920   5.3539   5.5003   5.5003
     6.3326   7.7617   8.5715   8.5715   8.7479   8.8146   8.8215   8.8215
     8.9274   8.9274   9.1355   9.2894   9.5418   9.5418   9.5452   9.8617
     9.8617   9.9862   9.9874   9.9874  10.0048  10.0146  10.0146  10.0338
    10.0343  10.0343  10.1712  10.1800  10.1800  10.1905  10.1905  10.2054
    10.2106  10.2106  10.2609  10.6383  10.6383  10.6925  11.1001  11.1938
    11.1938  11.2085  11.2086  11.3178  11.3290  11.3380  11.3380  11.6825
    11.6829  11.7256  11.8447  11.8752  11.8755  11.8860  12.0524  12.0567

     occupation numbers
     1.0000   1.0000   1.0000   1.0000   1.0000   1.0000   1.0000   1.0000
     1.0000   1.0000   1.0000   1.0000   1.0000   1.0000   1.0000   1.0000
     1.0000   1.0000   1.0000   1.0000   1.0000   1.0000   1.0000   1.0000
     1.0000   1.0000   1.0000   1.0000   1.0000   1.0000   1.0000   1.0000
     1.0000   1.0000   1.0000   1.0000   1.0000   1.0000   1.0000   1.0000
     1.0000   1.0000   1.0000   1.0000   1.0000   1.0000   1.0000   1.0000
     1.0000   1.0000   1.0000   1.0000   1.0000   1.0000   1.0000   1.0000
     1.0000   1.0000   1.0000   1.0000   1.0000   1.0000   1.0000   1.0000
     1.0000   1.0000   1.0000   1.0000   1.0000   1.0000   1.0000   1.0000
     1.0000   1.0000   1.0000   1.0000   1.0000   1.0000   1.0000   1.0000
     1.0000   1.0000   1.0000   1.0000   1.0000   1.0000   1.0000   1.0000
     1.0000   1.0000   1.0000   1.0000   1.0000   1.0000   1.0000   1.0000
     1.0000   1.0000   1.0000   1.0000   1.0000   1.0000   1.0000   1.0000
     1.0000   1.0000   1.0000   1.0000   1.0000   1.0000   1.0000   1.0000
     1.0000   1.0000   1.0000   1.0000   1.0000   1.0000   1.0000   1.0000
     1.0000   1.0000   1.0000   1.0000   1.0000   1.0000   1.0000   1.0000
     1.0000   1.0000   1.0000   1.0000   1.0000   1.0000   1.0000   1.0000
     1.0000   1.0000   1.0000   1.0000   1.0000   1.0000   1.0000   1.0000
     1.0000   1.0000   1.0000   1.0000   1.0000   1.0000   1.0000   1.0000
     1.0000   1.0000   1.0000   1.0000   1.0000   1.0000   1.0000   1.0000
     1.0000   1.0000   1.0000   1.0000   1.0000   1.0000   1.0000   1.0000
     1.0000   1.0000   1.0000   1.0000   1.0000   1.0000   1.0000   1.0000
     1.0000   1.0000   1.0000   1.0000   1.0000   1.0000   1.0000   1.0000
     1.0000   1.0000   1.0000   1.0000   1.0000   1.0000   1.0000   1.0000
     1.0000   1.0000   1.0000   1.0000   1.0000   1.0000   1.0000   1.0000
     1.0000   1.0000   1.0000   1.0000   1.0000   1.0000   1.0000   1.0000
     1.0000   1.0000   1.0000   1.0000   1.0000   1.0000   1.0000   1.0000
     1.0000   1.0000   1.0000   1.0000   1.0000   1.0000   1.0000   1.0000
     1.0000   1.0000   1.0000   1.0000   1.0000   1.0000   1.0000   1.0000
     1.0000   1.0000   1.0000   1.0000   1.0000   1.0000   1.0000   1.0000
     1.0000   1.0000   1.0000   1.0000   1.0000   1.0000   1.0000   1.0000
     1.0000   1.0000   1.0000   1.0000   1.0000   1.0000   1.0000   1.0000
     1.0000   1.0000   1.0000   1.0000   1.0000   1.0000   1.0000   1.0000
     1.0000   1.0000   1.0000   1.0000   1.0000   1.0000   1.0000   1.0000
     1.0000   1.0000   1.0000   1.0000   1.0000   1.0000   1.0000   1.0000
     1.0000   1.0000   1.0000   1.0000   1.0000   1.0000   1.0000   1.0000
     1.0000   0.0000   0.0000   0.0000   0.0000   0.0000   0.0000   0.0000
     0.0000   0.0000   0.0000   0.0000   0.0000   0.0000   0.0000   0.0000
     0.0000   0.0000   0.0000   0.0000   0.0000   0.0000   0.0000   0.0000
     0.0000   0.0000   0.0000   0.0000   0.0000   0.0000   0.0000   0.0000
     0.0000   0.0000   0.0000   0.0000   0.0000   0.0000   0.0000   0.0000
     0.0000   0.0000   0.0000   0.0000   0.0000   0.0000   0.0000   0.0000
     0.0000   0.0000   0.0000   0.0000   0.0000   0.0000   0.0000   0.0000

[...]

          k =-0.5000-0.5000-0.5000 (269968 PWs)   bands (ev):

[...]

 ------ SPIN DOWN ----------

[...]

          k =-0.2500 0.0000 0.2500 (269929 PWs)   bands (ev):

[...]

          k = 0.2500-0.2500-0.5000 (269988 PWs)   bands (ev):

   -78.7427 -44.8893 -44.8893 -44.8702  -7.3718  -7.3341  -7.1279  -7.1237
    -7.1020  -7.0620  -6.9381  -6.8917  -6.7470  -6.7431  -6.7345  -6.7099
    -6.6806  -6.6718  -6.6473  -6.6316  -6.5956  -6.5856  -6.5783  -6.5631
    -6.5435  -6.5351  -6.5211  -6.5046  -6.4859  -6.4808  -6.4655  -6.4582
    -6.4497  -6.4313  -6.4081  -0.8059  -0.7977  -0.7873  -0.7778  -0.7748
    -0.7727  -0.7680  -0.7668  -0.7617  -0.7612  -0.7553  -0.7545  -0.7514
    -0.7490  -0.7444  -0.7374  -0.7370  -0.7340  -0.7226  -0.7211  -0.7177
    -0.7155  -0.7151  -0.7128  -0.7122  -0.7118  -0.7099  -0.7095  -0.7063
    -0.7009  -0.7005  -0.6994  -0.6964  -0.6953  -0.6926  -0.6922  -0.6911
    -0.6900  -0.6863  -0.6826  -0.6811  -0.6667  -0.6619  -0.6612  -0.6533
    -0.6492  -0.6423  -0.6399  -0.6323  -0.6316  -0.6278  -0.6226  -0.6211
    -0.6177  -0.6063  -0.6009  -0.5987  -0.5979  -0.5959  -0.5847  -0.5801
    -0.5742  -0.5726  -0.5663  -0.5651  -0.5613  -0.5543  -0.5471  -0.5425
    -0.5401  -0.5307  -0.5301  -0.5218  -0.4921  -0.4781  -0.4726  -0.4646
    -0.4599  -0.4555  -0.4521  -0.4466  -0.4438  -0.4398  -0.4351  -0.4141
    -0.4022  -0.4013  -0.3905  -0.3831  -0.3742  -0.3657  -0.3491  -0.3443
    -0.3420  -0.3397  -0.3357  -0.3347  -0.3340  -0.3278  -0.3250  -0.3195
    -0.3182  -0.3158  -0.3152  -0.3113  -0.3109  -0.3092  -0.3084  -0.3074
    -0.3062  -0.3056  -0.3046  -0.3034  -0.3019  -0.3010  -0.3002  -0.2995
    -0.2976  -0.2965  -0.2941  -0.2907  -0.2887  -0.2874  -0.2847  -0.2827
    -0.2816  -0.2801  -0.2766  -0.2734  -0.2713  -0.2700  -0.2619  -0.2579
    -0.2570  -0.2492  -0.2473  -0.2421  -0.2378  -0.2276  -0.2241  -0.2057
    -0.1768  -0.1748  -0.1449  -0.1351  -0.1172  -0.1115  -0.0839  -0.0787
    -0.0721  -0.0689  -0.0598  -0.0327  -0.0261  -0.0155   0.5786   0.6369
     0.7851   0.8211   0.8482   0.8696   0.8979   0.9100   0.9466   0.9698
     1.0105   1.0186   1.0269   1.0436   1.0684   1.1116   1.2055   1.3942
     1.4327   1.5218   1.5771   1.6057   1.6499   1.7214   1.8458   2.0284
     2.4745   2.5669   2.5886   2.5989   2.6141   2.6174   2.6752   2.7541
     2.7578   2.7991   2.8119   2.8448   2.9140   2.9513   2.9915   3.0523
     3.2433   3.2920   3.3486   3.3853   3.4229   3.4515   3.4745   3.4923
     3.5251   3.5320   3.5493   3.5783   3.5985   3.6250   3.6415   3.6717
     3.6773   3.6827   3.7155   3.7220   3.7407   3.7642   3.7875   3.7995
     3.8079   3.9309   3.9502   4.0048   4.0224   4.0613   4.1046   4.1563
     4.2029   4.2088   4.2186   4.2997   4.3529   4.3847   4.4045   4.4132
     4.4621   4.5839   4.7519   4.8035   4.8118   4.8776   4.8830   4.9402
     5.0110   5.0368   5.0700   6.5572   6.7801   6.7883   7.3537   7.5956
     7.6296   8.4034   8.4847   8.9406   8.9745   9.0973   9.1378   9.2762
     9.3563   9.3880   9.4644   9.5466   9.5828   9.6205   9.6366   9.6503
     9.7018   9.7584   9.7801   9.8227   9.8282   9.8774   9.8926   9.9595
    10.0118  10.0276  10.0795  10.1098  10.1407  10.2083  10.2367  10.3417
    10.3675  10.4430  10.4758  10.6416  10.7305  10.7853  10.8102  10.8565
    10.8782  10.9702  11.0554  11.1668  11.2428  11.2964  11.3789  11.4462
    11.4770  11.5080  11.5162  11.5447  11.5960  11.6188  11.6448  11.6546

     occupation numbers
     1.0000   1.0000   1.0000   1.0000   1.0000   1.0000   1.0000   1.0000
     1.0000   1.0000   1.0000   1.0000   1.0000   1.0000   1.0000   1.0000
     1.0000   1.0000   1.0000   1.0000   1.0000   1.0000   1.0000   1.0000
     1.0000   1.0000   1.0000   1.0000   1.0000   1.0000   1.0000   1.0000
     1.0000   1.0000   1.0000   1.0000   1.0000   1.0000   1.0000   1.0000
     1.0000   1.0000   1.0000   1.0000   1.0000   1.0000   1.0000   1.0000
     1.0000   1.0000   1.0000   1.0000   1.0000   1.0000   1.0000   1.0000
     1.0000   1.0000   1.0000   1.0000   1.0000   1.0000   1.0000   1.0000
     1.0000   1.0000   1.0000   1.0000   1.0000   1.0000   1.0000   1.0000
     1.0000   1.0000   1.0000   1.0000   1.0000   1.0000   1.0000   1.0000
     1.0000   1.0000   1.0000   1.0000   1.0000   1.0000   1.0000   1.0000
     1.0000   1.0000   1.0000   1.0000   1.0000   1.0000   1.0000   1.0000
     1.0000   1.0000   1.0000   1.0000   1.0000   1.0000   1.0000   1.0000
     1.0000   1.0000   1.0000   1.0000   1.0000   1.0000   1.0000   1.0000
     1.0000   1.0000   1.0000   1.0000   1.0000   1.0000   1.0000   1.0000
     1.0000   1.0000   1.0000   1.0000   1.0000   1.0000   1.0000   1.0000
     1.0000   1.0000   1.0000   1.0000   1.0000   1.0000   1.0000   1.0000
     1.0000   1.0000   1.0000   1.0000   1.0000   1.0000   1.0000   1.0000
     1.0000   1.0000   1.0000   1.0000   1.0000   1.0000   1.0000   1.0000
     1.0000   1.0000   1.0000   1.0000   1.0000   1.0000   1.0000   1.0000
     1.0000   1.0000   1.0000   1.0000   1.0000   1.0000   1.0000   1.0000
     1.0000   1.0000   1.0000   1.0000   1.0000   1.0000   1.0000   1.0000
     1.0000   1.0000   1.0000   1.0000   1.0000   1.0000   1.0000   1.0000
     1.0000   1.0000   1.0000   1.0000   1.0000   1.0000   1.0000   1.0000
     1.0000   1.0000   1.0000   1.0000   1.0000   1.0000   1.0000   1.0000
     1.0000   1.0000   1.0000   1.0000   1.0000   1.0000   1.0000   1.0000
     1.0000   1.0000   1.0000   1.0000   1.0000   1.0000   1.0000   1.0000
     1.0000   1.0000   1.0000   1.0000   1.0000   1.0000   1.0000   1.0000
     1.0000   1.0000   1.0000   1.0000   1.0000   1.0000   1.0000   1.0000
     1.0000   1.0000   1.0000   1.0000   1.0000   1.0000   1.0000   1.0000
     1.0000   1.0000   1.0000   1.0000   1.0000   1.0000   1.0000   1.0000
     1.0000   1.0000   1.0000   1.0000   1.0000   1.0000   1.0000   1.0000
     1.0000   1.0000   1.0000   1.0000   1.0000   1.0000   1.0000   1.0000
     1.0000   1.0000   1.0000   1.0000   1.0000   1.0000   1.0000   1.0000
     1.0000   1.0000   1.0000   1.0000   1.0000   1.0000   1.0000   1.0000
     1.0000   1.0000   1.0000   1.0000   0.5374   0.2237   0.0000   0.0000
     0.0000   0.0000   0.0000   0.0000   0.0000   0.0000   0.0000   0.0000
     0.0000   0.0000   0.0000   0.0000   0.0000   0.0000   0.0000   0.0000
     0.0000   0.0000   0.0000   0.0000   0.0000   0.0000   0.0000   0.0000
     0.0000   0.0000   0.0000   0.0000   0.0000   0.0000   0.0000   0.0000
     0.0000   0.0000   0.0000   0.0000   0.0000   0.0000   0.0000   0.0000
     0.0000   0.0000   0.0000   0.0000   0.0000   0.0000   0.0000   0.0000
     0.0000   0.0000   0.0000   0.0000   0.0000   0.0000   0.0000   0.0000

     the Fermi energy is     6.7810 ev

!    total energy              =   -9943.22550527 Ry
     total all-electron energy =   -138654.964483 Ry
     estimated scf accuracy    <          4.5E-10 Ry
     smearing contrib. (-TS)   =      -0.00046302 Ry
     internal energy E=F+TS    =   -9943.22504226 Ry

     The total energy is F=E-TS. E is the sum of the following terms:
     one-electron contribution =   -2893.80563764 Ry
     hartree contribution      =    2013.31387885 Ry
     xc contribution           =   -1649.84475702 Ry
     ewald contribution        =   -2941.96206788 Ry
     one-center paw contrib.   =   -4470.92645858 Ry
      -> PAW hartree energy AE =     123.27679149 Ry
      -> PAW hartree energy PS =    -122.63494661 Ry
      -> PAW xc energy AE      =    -143.20933957 Ry
      -> PAW xc energy PS      =      47.14794440 Ry
      -> total E_H with PAW    =    2013.95572373 Ry
      -> total E_XC with PAW   =   -1745.90615218 Ry

     total magnetization       =     4.00 Bohr mag/cell
     absolute magnetization    =     4.04 Bohr mag/cell

     convergence has been achieved in  22 iterations

     Writing all to output data dir ./out/Fe_vac_q0_unrlxd.save/

     General routines

     Parallel routines

     PAW routines

   This run was terminated on:   1:12:55   7Jul2024

   JOB DONE.