     Program PWSCF v.7.2 starts on 18Jul2024 at  2: 4:59

     Reading input from 1.Cu_vac_in_ZnS.scf.q0.unrlxd.U3.in

     Current dimensions of program PWSCF are:
     Max number of different atomic species (ntypx) = 10
     Max number of k-points (npk) =  40000
     Max angular momentum in pseudopotentials (lmaxx) =  4
     file S.pbe-n-kjpaw_psl.1.0.0.UPF: wavefunction(s)  3S 3P renormalized
     file Zn.pbe-dnl-kjpaw_psl.1.0.0.UPF: wavefunction(s)  4S 3D renormalized
     file Cu.pbe-spn-kjpaw_psl.1.0.0.UPF: wavefunction(s)  4S 3P 3D renormalized

     K-points division:     npool     =      13
     R & G space division:  proc/nbgrp/npool/nimage =     112
     Subspace diagonalization in iterative solution of the eigenvalue problem:
     one sub-group per band group will be used

     Using Slab Decomposition

     bravais-lattice index     =            1
     lattice parameter (alat)  =      20.5686  a.u.
     unit-cell volume          =    8701.8437 (a.u.)^3
     number of atoms/cell      =           63
     number of atomic types    =            3
     number of electrons       =       577.00
     number of Kohn-Sham states=          347
     kinetic-energy cutoff     =     150.0000  Ry
     charge density cutoff     =     600.0000  Ry
     scf convergence threshold =      1.0E-08
     mixing beta               =       0.7000
     number of iterations used =            8  plain     mixing
     Exchange-correlation= SLA  PW   PBX  PBC
                           (   1   4   3   4   0   0   0)
     Hubbard projectors: ortho-atomic
     Hubbard parameters of DFT+U (Dudarev formulation) in eV:
     U(Zn-3d) =  7.0000
     U(Cu-3d) =  3.0000

     Internal variables: lda_plus_u = T, lda_plus_u_kind = 0

     celldm(1)=  20.568554  celldm(2)=   0.000000  celldm(3)=   0.000000
     celldm(4)=   0.000000  celldm(5)=   0.000000  celldm(6)=   0.000000

     crystal axes: (cart. coord. in units of alat)
               a(1) = (   1.000000   0.000000   0.000000 )
               a(2) = (   0.000000   1.000000   0.000000 )
               a(3) = (   0.000000   0.000000   1.000000 )

     reciprocal axes: (cart. coord. in units 2 pi/alat)
               b(1) = (  1.000000  0.000000  0.000000 )
               b(2) = (  0.000000  1.000000  0.000000 )
               b(3) = (  0.000000  0.000000  1.000000 )

     PseudoPot. # 1 for S  read from file:
     /arf/home/amuhaymin/pseudo/S.pbe-n-kjpaw_psl.1.0.0.UPF
     MD5 check sum: fb45dfebcf3e72a4e1bd4a866ec2e262
     Pseudo is Projector augmented-wave + core cor, Zval =  6.0
     Generated using &quot;atomic&quot; code by A. Dal Corso  v.6.3
     Shape of augmentation charge: PSQ
     Using radial grid of 1151 points,  6 beta functions with:
                l(1) =   0
                l(2) =   0
                l(3) =   1
                l(4) =   1
                l(5) =   2
                l(6) =   2
     Q(r) pseudized with 0 coefficients

     PseudoPot. # 2 for Zn read from file:
     /arf/home/amuhaymin/pseudo/Zn.pbe-dnl-kjpaw_psl.1.0.0.UPF
     MD5 check sum: c608214d9520ac179f507641260889e3
     Pseudo is Projector augmented-wave + core cor, Zval = 12.0
     Generated using &quot;atomic&quot; code by A. Dal Corso  v.6.2.2
     Shape of augmentation charge: PSQ
     Using radial grid of 1201 points,  6 beta functions with:
                l(1) =   0
                l(2) =   0
                l(3) =   1
                l(4) =   1
                l(5) =   2
                l(6) =   2
     Q(r) pseudized with 0 coefficients

     PseudoPot. # 3 for Cu read from file:
     /arf/home/amuhaymin/pseudo/Cu.pbe-spn-kjpaw_psl.1.0.0.UPF
     MD5 check sum: e7cbaad2f97193e5fe23251a619a52b0
     Pseudo is Projector augmented-wave + core cor, Zval = 19.0
     Generated using &quot;atomic&quot; code by A. Dal Corso  v.6.3
     Shape of augmentation charge: PSQ
     Using radial grid of 1199 points,  6 beta functions with:
                l(1) =   0
                l(2) =   0
                l(3) =   1
                l(4) =   1
                l(5) =   2
                l(6) =   2
     Q(r) pseudized with 0 coefficients

     atomic species   valence    mass     pseudopotential
        S              6.00    32.06500     S ( 1.00)
        Zn            12.00    65.38000     Zn( 1.00)
        Cu            19.00    63.54600     Cu( 1.00)

     Starting magnetic structure
     atomic species   magnetization
        S            0.000
        Zn           0.000
        Cu           0.053

      6 Sym. Ops. (no inversion) found

                                    s                        frac. trans.

      isym =  1     identity

 cryst.   s( 1) = (     1          0          0      )
                  (     0          1          0      )
                  (     0          0          1      )

 cart.    s( 1) = (  1.0000000  0.0000000  0.0000000 )
                  (  0.0000000  1.0000000  0.0000000 )
                  (  0.0000000  0.0000000  1.0000000 )

      isym =  2     120 deg rotation - cart. axis [-1,-1,-1]

[...]

      isym =  3     120 deg rotation - cart. axis [1,1,1]

[...]

      isym =  4     inv. 180 deg rotation - cart. axis [1,-1,0]

[...]

      isym =  6     inv. 180 deg rotation - cart. axis [0,1,-1]

 cryst.   s( 6) = (     1          0          0      )
                  (     0          0          1      )
                  (     0          1          0      )

 cart.    s( 6) = (  1.0000000  0.0000000  0.0000000 )
                  (  0.0000000  0.0000000  1.0000000 )
                  (  0.0000000  1.0000000  0.0000000 )

     point group C_3v (3m)
     there are  3 classes
     the character table:

       E     2C3   3s_v
A_1    1.00  1.00  1.00
A_2    1.00  1.00 -1.00
E      2.00 -1.00  0.00

     the symmetry operations in each class and the name of the first element:

     E        1
          identity
     2C3      2    3
          120 deg rotation - cart. axis [-1,-1,-1]
     3s_v     4    5    6
          inv. 180 deg rotation - cart. axis [1,-1,0]

   Cartesian axes

     site n.     atom                  positions (alat units)
         1           Zn  tau(   1) = (   0.0000000   0.0000000   0.0000000  )
         2           Zn  tau(   2) = (   0.0000000   0.2500000   0.2500000  )
         3           Zn  tau(   3) = (   0.2500000   0.0000000   0.2500000  )
         4           Zn  tau(   4) = (   0.2500000   0.2500000   0.0000000  )
         5           S   tau(   5) = (   0.1250000   0.3750000   0.3750000  )
         6           S   tau(   6) = (   0.1250000   0.1250000   0.1250000  )
         7           S   tau(   7) = (   0.3750000   0.3750000   0.1250000  )
         8           S   tau(   8) = (   0.3750000   0.1250000   0.3750000  )
         9           Zn  tau(   9) = (   0.0000000   0.0000000   0.5000000  )
        10           Zn  tau(  10) = (   0.0000000   0.2500000   0.7500000  )
        11           Zn  tau(  11) = (   0.2500000   0.0000000   0.7500000  )
        12           Zn  tau(  12) = (   0.2500000   0.2500000   0.5000000  )
        13           S   tau(  13) = (   0.1250000   0.3750000   0.8750000  )
        14           S   tau(  14) = (   0.1250000   0.1250000   0.6250000  )
        15           S   tau(  15) = (   0.3750000   0.3750000   0.6250000  )
        16           S   tau(  16) = (   0.3750000   0.1250000   0.8750000  )
        17           Zn  tau(  17) = (   0.0000000   0.5000000   0.0000000  )
        18           Zn  tau(  18) = (   0.0000000   0.7500000   0.2500000  )
        19           Zn  tau(  19) = (   0.2500000   0.5000000   0.2500000  )
        20           Zn  tau(  20) = (   0.2500000   0.7500000   0.0000000  )
        21           S   tau(  21) = (   0.1250000   0.8750000   0.3750000  )
        22           S   tau(  22) = (   0.1250000   0.6250000   0.1250000  )
        23           S   tau(  23) = (   0.3750000   0.8750000   0.1250000  )
        24           S   tau(  24) = (   0.3750000   0.6250000   0.3750000  )
        25           Zn  tau(  25) = (   0.0000000   0.5000000   0.5000000  )
        26           Zn  tau(  26) = (   0.0000000   0.7500000   0.7500000  )
        27           Zn  tau(  27) = (   0.2500000   0.5000000   0.7500000  )
        28           Zn  tau(  28) = (   0.2500000   0.7500000   0.5000000  )
        29           S   tau(  29) = (   0.1250000   0.8750000   0.8750000  )
        30           S   tau(  30) = (   0.1250000   0.6250000   0.6250000  )
        31           S   tau(  31) = (   0.3750000   0.8750000   0.6250000  )
        32           S   tau(  32) = (   0.3750000   0.6250000   0.8750000  )
        33           Zn  tau(  33) = (   0.5000000   0.0000000   0.0000000  )
        34           Zn  tau(  34) = (   0.5000000   0.2500000   0.2500000  )
        35           Zn  tau(  35) = (   0.7500000   0.0000000   0.2500000  )
        36           Zn  tau(  36) = (   0.7500000   0.2500000   0.0000000  )
        37           S   tau(  37) = (   0.6250000   0.3750000   0.3750000  )
        38           S   tau(  38) = (   0.6250000   0.1250000   0.1250000  )
        39           S   tau(  39) = (   0.8750000   0.3750000   0.1250000  )
        40           S   tau(  40) = (   0.8750000   0.1250000   0.3750000  )
        41           Zn  tau(  41) = (   0.5000000   0.0000000   0.5000000  )
        42           Zn  tau(  42) = (   0.5000000   0.2500000   0.7500000  )
        43           Zn  tau(  43) = (   0.7500000   0.0000000   0.7500000  )
        44           Zn  tau(  44) = (   0.7500000   0.2500000   0.5000000  )
        45           S   tau(  45) = (   0.6250000   0.3750000   0.8750000  )
        46           S   tau(  46) = (   0.6250000   0.1250000   0.6250000  )
        47           S   tau(  47) = (   0.8750000   0.3750000   0.6250000  )
        48           S   tau(  48) = (   0.8750000   0.1250000   0.8750000  )
        49           Zn  tau(  49) = (   0.5000000   0.5000000   0.0000000  )
        50           Zn  tau(  50) = (   0.5000000   0.7500000   0.2500000  )
        51           Zn  tau(  51) = (   0.7500000   0.5000000   0.2500000  )
        52           Zn  tau(  52) = (   0.7500000   0.7500000   0.0000000  )
        53           S   tau(  53) = (   0.6250000   0.8750000   0.3750000  )
        54           S   tau(  54) = (   0.6250000   0.6250000   0.1250000  )
        55           S   tau(  55) = (   0.8750000   0.8750000   0.1250000  )
        56           S   tau(  56) = (   0.8750000   0.6250000   0.3750000  )
        57           Cu  tau(  57) = (   0.5000000   0.5000000   0.5000000  )
        58           Zn  tau(  58) = (   0.5000000   0.7500000   0.7500000  )
        59           Zn  tau(  59) = (   0.7500000   0.5000000   0.7500000  )
        60           Zn  tau(  60) = (   0.7500000   0.7500000   0.5000000  )
        61           S   tau(  61) = (   0.6250000   0.8750000   0.8750000  )
        62           S   tau(  62) = (   0.8750000   0.8750000   0.6250000  )
        63           S   tau(  63) = (   0.8750000   0.6250000   0.8750000  )

   Crystallographic axes

     site n.     atom                  positions (cryst. coord.)
         1           Zn  tau(   1) = (  0.0000000  0.0000000  0.0000000  )
[...]
     atom  30 (R=0.089)  charge=  3.9963  magn= -0.0001
     atom  31 (R=0.089)  charge=  3.9914  magn=  0.0131
     atom  32 (R=0.089)  charge=  3.9914  magn=  0.0131
     atom  33 (R=0.089)  charge= 10.1750  magn=  0.0023
     atom  34 (R=0.089)  charge= 10.1733  magn=  0.0012
     atom  35 (R=0.089)  charge= 10.1736  magn=  0.0019
     atom  36 (R=0.089)  charge= 10.1736  magn=  0.0019
     atom  37 (R=0.089)  charge=  3.9779  magn=  0.0066
     atom  38 (R=0.089)  charge=  3.9947  magn=  0.0075
     atom  39 (R=0.089)  charge=  3.9968  magn=  0.0008
     atom  40 (R=0.089)  charge=  3.9968  magn=  0.0008
     atom  41 (R=0.089)  charge= 10.1740  magn= -0.0001
     atom  42 (R=0.089)  charge= 10.1748  magn= -0.0000
     atom  43 (R=0.089)  charge= 10.1747  magn= -0.0001
     atom  44 (R=0.089)  charge= 10.1748  magn= -0.0000
     atom  45 (R=0.089)  charge=  3.9914  magn=  0.0131
     atom  46 (R=0.089)  charge=  3.9963  magn= -0.0001
     atom  47 (R=0.089)  charge=  3.9914  magn=  0.0131
     atom  48 (R=0.089)  charge=  3.9965  magn=  0.0010
     atom  49 (R=0.089)  charge= 10.1740  magn= -0.0001
     atom  50 (R=0.089)  charge= 10.1748  magn= -0.0000
     atom  51 (R=0.089)  charge= 10.1748  magn= -0.0000
     atom  52 (R=0.089)  charge= 10.1747  magn= -0.0001
     atom  53 (R=0.089)  charge=  3.9914  magn=  0.0131
     atom  54 (R=0.089)  charge=  3.9963  magn= -0.0001
     atom  55 (R=0.089)  charge=  3.9965  magn=  0.0010
     atom  56 (R=0.089)  charge=  3.9914  magn=  0.0131
     atom  57 (R=0.089)  charge= 17.3914  magn=  0.0163
     atom  58 (R=0.089)  charge= 10.1339  magn=  0.0332
     atom  59 (R=0.089)  charge= 10.1339  magn=  0.0332
     atom  60 (R=0.089)  charge= 10.1339  magn=  0.0332
     atom  61 (R=0.089)  charge=  3.9921  magn=  0.0180
     atom  62 (R=0.089)  charge=  3.9921  magn=  0.0180
     atom  63 (R=0.089)  charge=  3.9921  magn=  0.0180

     End of self-consistent calculation

 ------ SPIN UP ------------

          k = 0.0000 0.0000 0.0000 (269825 PWs)   bands (ev):

  -104.1564 -61.6307 -61.5417 -61.5417  -7.6042  -7.2273  -7.2273  -7.1906
    -7.1825  -7.1825  -7.1231  -7.0532  -7.0532  -7.0137  -6.9974  -6.9585
    -6.9585  -6.9268  -6.9252  -6.9252  -6.9099  -6.9099  -6.8942  -6.8557
    -6.8557  -6.8225  -6.7748  -6.7748  -6.7267  -6.7062  -6.6857  -6.6857
    -6.4678  -6.3262  -6.3262  -3.9821  -3.9653  -3.9653  -3.9623  -3.9488
    -3.9488  -3.9398  -3.9398  -3.9322  -3.9313  -3.9204  -3.9204  -3.9058
    -3.9017  -3.9017  -3.7950  -3.7950  -3.7928  -3.7697  -3.7697  -3.7639
    -3.7606  -3.7577  -3.7577  -3.7506  -3.7506  -3.7445  -3.7445  -3.7430
    -3.7375  -3.7375  -3.7354  -3.7320  -3.7291  -3.7291  -3.7262  -3.7185
    -3.7185  -3.7180  -3.7120  -3.7120  -3.7040  -3.6967  -3.6967  -3.6915
    -3.6862  -3.6862  -3.6835  -3.6783  -3.6783  -3.6768  -3.6677  -3.6638
    -3.6638  -3.6561  -3.6561  -3.6540  -3.6540  -3.6514  -3.6447  -3.6437
    -3.6437  -3.6374  -3.6374  -3.6269  -3.6269  -3.6250  -3.6238  -3.6114
    -3.6114  -3.6102  -3.6047  -3.5995  -3.5978  -3.5978  -3.5947  -3.5865
    -3.5865  -3.5849  -3.5849  -3.5841  -3.5829  -3.5818  -3.5767  -3.5767
    -3.5737  -3.5737  -3.5730  -3.5730  -3.5636  -3.5610  -3.5603  -3.5603
    -3.5519  -3.5519  -3.5499  -3.5423  -3.5393  -3.5393  -3.5291  -3.5276
    -3.5276  -3.5152  -3.5152  -3.5035  -3.5035  -3.4999  -3.4999  -3.4970
    -3.4959  -3.4959  -3.4858  -3.4793  -3.4562  -3.4549  -3.4549  -3.4392
    -3.4392  -3.4360  -3.4263  -3.4240  -3.4240  -3.4181  -3.4181  -3.4151
    -3.4151  -3.4113  -3.4037  -3.3984  -3.3984  -3.3874  -3.2497  -3.2466
    -3.2466  -3.2332  -3.2332  -3.2282  -3.2004  -3.2004  -3.1848  -3.1848
    -3.1795  -3.1255  -3.1061  -3.1061  -3.0739  -3.0129  -3.0129  -2.9806
    -2.8946  -2.8658  -2.8658  -2.8644  -2.8411  -2.8411   0.2369   0.2832
     0.3074   0.3074   0.6403   0.6488   0.6488   0.8453   0.8578   0.8578
     0.8666   0.9087   0.9087   1.0886   1.2403   1.2403   1.2448   1.2448
     1.3003   1.3076   1.3076   1.3115   1.4271   1.4271   1.8976   2.3159
     2.4573   2.4573   2.5050   2.5154   2.5154   2.5400   2.5400   2.5516
     2.5967   2.5967   2.6848   2.6875   2.6875   2.7130   2.7586   2.7586
     2.7662   2.7806   2.7806   2.7959   2.7959   2.8029   2.8092   2.8684
     2.8684   2.9668   3.0203   3.0203   3.0968   3.1814   3.1906   3.1906
     3.3975   3.3975   3.4444   3.6604   3.6604   3.9452   3.9452   3.9617
     4.0164   4.0164   4.0235   4.0353   4.0782   4.0782   4.1612   4.1612
     4.1649   4.2778   4.2778   4.2938   4.2938   4.2992   4.3231   4.3231
     4.3399   4.3787   4.3898   4.3898   4.3960   4.3998   4.4075   4.4075
     4.5255   4.7564   4.7564   4.9931   4.9931   5.1605   5.5965   5.5965
     5.9202   7.7355   8.2581   8.2581   8.7353   8.7582   8.7582   8.8114
     8.9112   8.9112   9.0715   9.3299   9.5207   9.5293   9.5293   9.8697
     9.8697   9.9637   9.9700   9.9700  10.0043  10.0156  10.0156  10.0253
    10.0462  10.0462  10.1883  10.1883  10.1974  10.2180  10.2180  10.2384
    10.2405  10.2405  10.2811  10.6013  10.6013  10.6921  11.0688  11.1451
    11.1451  11.1820  11.1820  11.3082  11.3569  11.3569  11.3702  11.6395
    11.6629  11.6630  11.8517  11.8669  11.8707  11.8709  12.0413  12.0413
    12.0478  12.0630  12.0632

     occupation numbers
     1.0000   1.0000   1.0000   1.0000   1.0000   1.0000   1.0000   1.0000
     1.0000   1.0000   1.0000   1.0000   1.0000   1.0000   1.0000   1.0000
     1.0000   1.0000   1.0000   1.0000   1.0000   1.0000   1.0000   1.0000
     1.0000   1.0000   1.0000   1.0000   1.0000   1.0000   1.0000   1.0000
     1.0000   1.0000   1.0000   1.0000   1.0000   1.0000   1.0000   1.0000
     1.0000   1.0000   1.0000   1.0000   1.0000   1.0000   1.0000   1.0000
     1.0000   1.0000   1.0000   1.0000   1.0000   1.0000   1.0000   1.0000
     1.0000   1.0000   1.0000   1.0000   1.0000   1.0000   1.0000   1.0000
     1.0000   1.0000   1.0000   1.0000   1.0000   1.0000   1.0000   1.0000
     1.0000   1.0000   1.0000   1.0000   1.0000   1.0000   1.0000   1.0000
     1.0000   1.0000   1.0000   1.0000   1.0000   1.0000   1.0000   1.0000
     1.0000   1.0000   1.0000   1.0000   1.0000   1.0000   1.0000   1.0000
     1.0000   1.0000   1.0000   1.0000   1.0000   1.0000   1.0000   1.0000
     1.0000   1.0000   1.0000   1.0000   1.0000   1.0000   1.0000   1.0000
     1.0000   1.0000   1.0000   1.0000   1.0000   1.0000   1.0000   1.0000
     1.0000   1.0000   1.0000   1.0000   1.0000   1.0000   1.0000   1.0000
     1.0000   1.0000   1.0000   1.0000   1.0000   1.0000   1.0000   1.0000
     1.0000   1.0000   1.0000   1.0000   1.0000   1.0000   1.0000   1.0000
     1.0000   1.0000   1.0000   1.0000   1.0000   1.0000   1.0000   1.0000
     1.0000   1.0000   1.0000   1.0000   1.0000   1.0000   1.0000   1.0000
     1.0000   1.0000   1.0000   1.0000   1.0000   1.0000   1.0000   1.0000
     1.0000   1.0000   1.0000   1.0000   1.0000   1.0000   1.0000   1.0000
     1.0000   1.0000   1.0000   1.0000   1.0000   1.0000   1.0000   1.0000
     1.0000   1.0000   1.0000   1.0000   1.0000   1.0000   1.0000   1.0000
     1.0000   1.0000   1.0000   1.0000   1.0000   1.0000   1.0000   1.0000
     1.0000   1.0000   1.0000   1.0000   1.0000   1.0000   1.0000   1.0000
     1.0000   1.0000   1.0000   1.0000   1.0000   1.0000   1.0000   1.0000
     1.0000   1.0000   1.0000   1.0000   1.0000   1.0000   1.0000   1.0000
     1.0000   1.0000   1.0000   1.0000   1.0000   1.0000   1.0000   1.0000
     1.0000   1.0000   1.0000   1.0000   1.0000   1.0000   1.0000   1.0000
     1.0000   1.0000   1.0000   1.0000   1.0000   1.0000   1.0000   1.0000
     1.0000   1.0000   1.0000   1.0000   1.0000   1.0000   1.0000   1.0000
     1.0000   1.0000   1.0000   1.0000   1.0000   1.0000   1.0000   1.0000
     1.0000   1.0000   1.0000   1.0000   1.0000   1.0000   1.0000   1.0000
     1.0000   1.0000   1.0000   1.0000   1.0000   1.0000   1.0000   1.0000
     1.0000   1.0000   1.0000   1.0000   1.0000   1.0000   1.0000   1.0000
     1.0000   0.0000   0.0000   0.0000   0.0000   0.0000   0.0000   0.0000
     0.0000   0.0000   0.0000   0.0000   0.0000   0.0000   0.0000   0.0000
     0.0000   0.0000   0.0000   0.0000   0.0000   0.0000   0.0000   0.0000
     0.0000   0.0000   0.0000   0.0000   0.0000   0.0000   0.0000   0.0000
     0.0000   0.0000   0.0000   0.0000   0.0000   0.0000   0.0000   0.0000
     0.0000   0.0000   0.0000   0.0000   0.0000   0.0000   0.0000   0.0000
     0.0000   0.0000   0.0000   0.0000   0.0000   0.0000   0.0000   0.0000
     0.0000   0.0000   0.0000

[...]

          k =-0.5000-0.5000-0.5000 (269968 PWs)   bands (ev):

[...]

 ------ SPIN DOWN ----------

[...]

          k =-0.2500 0.0000 0.2500 (269929 PWs)   bands (ev):

[...]

          k = 0.2500-0.2500-0.5000 (269988 PWs)   bands (ev):

  -104.1429 -61.6027 -61.5357 -61.5357  -7.4506  -7.3953  -7.2609  -7.2523
    -7.2301  -7.1648  -7.1114  -7.0207  -7.0162  -6.9909  -6.9789  -6.9588
    -6.9334  -6.8993  -6.8913  -6.8689  -6.8654  -6.8458  -6.8416  -6.8360
    -6.8238  -6.8029  -6.7748  -6.7697  -6.7585  -6.7482  -6.7252  -6.7183
    -6.4492  -6.3266  -6.3236  -3.9482  -3.9460  -3.9449  -3.9393  -3.9359
    -3.9346  -3.9236  -3.9111  -3.9104  -3.9097  -3.9017  -3.9010  -3.8889
    -3.8877  -3.8869  -3.7895  -3.7871  -3.7786  -3.7732  -3.7715  -3.7676
    -3.7667  -3.7619  -3.7603  -3.7532  -3.7509  -3.7492  -3.7479  -3.7443
    -3.7411  -3.7366  -3.7345  -3.7274  -3.7248  -3.7185  -3.7176  -3.7148
    -3.7125  -3.7076  -3.7027  -3.6995  -3.6971  -3.6937  -3.6897  -3.6881
    -3.6863  -3.6843  -3.6817  -3.6778  -3.6769  -3.6695  -3.6687  -3.6656
    -3.6639  -3.6608  -3.6550  -3.6543  -3.6511  -3.6466  -3.6448  -3.6432
    -3.6385  -3.6369  -3.6309  -3.6274  -3.6266  -3.6255  -3.6213  -3.6176
    -3.6157  -3.6136  -3.6095  -3.6078  -3.6065  -3.6011  -3.5992  -3.5954
    -3.5923  -3.5889  -3.5864  -3.5829  -3.5797  -3.5762  -3.5742  -3.5694
    -3.5677  -3.5668  -3.5652  -3.5609  -3.5592  -3.5576  -3.5560  -3.5523
    -3.5510  -3.5488  -3.5454  -3.5428  -3.5414  -3.5383  -3.5359  -3.5336
    -3.5288  -3.5217  -3.5184  -3.5176  -3.5101  -3.5059  -3.5015  -3.4990
    -3.4954  -3.4894  -3.4793  -3.4668  -3.4478  -3.4472  -3.4446  -3.4432
    -3.4420  -3.4302  -3.4277  -3.4259  -3.4164  -3.4160  -3.4104  -3.4071
    -3.4062  -3.4024  -3.3994  -3.3950  -3.3917  -3.3905  -3.3661  -3.2997
    -3.2697  -3.2607  -3.2438  -3.1800  -3.1712  -3.1599  -3.1227  -3.1105
    -3.1031  -3.0560  -3.0460  -3.0290  -3.0093  -2.9990  -2.9970  -2.9843
    -2.9664  -2.9536  -2.9328  -2.9235  -2.9182  -2.9089   0.5086   0.5630
     0.6155   0.6990   0.7162   0.7438   0.7557   0.7716   0.7822   0.7932
     0.8119   0.8493   0.8532   0.8837   0.8955   0.9414   0.9794   1.1010
     1.1604   1.2417   1.2937   1.3470   1.3655   1.4156   1.5467   1.9050
     2.2060   2.3004   2.3414   2.3897   2.4211   2.4709   2.5022   2.5794
     2.6061   2.6709   2.6745   2.6829   2.7526   2.7867   2.8438   2.8764
     3.0793   3.0849   3.1784   3.2039   3.2188   3.2676   3.3106   3.3371
     3.3478   3.3622   3.3668   3.3926   3.4264   3.4542   3.4594   3.4784
     3.5023   3.5221   3.5419   3.5518   3.5723   3.6038   3.6196   3.6355
     3.6764   3.7555   3.7671   3.8009   3.8302   3.8381   3.9258   3.9589
     3.9907   3.9947   4.0402   4.0776   4.1649   4.1765   4.1876   4.2252
     4.2717   4.3097   4.3409   4.4096   4.5017   4.5354   4.6016   4.6800
     4.6896   4.7450   4.8202   4.8546   4.9134   4.9270   5.4842   5.5406
     6.7583   8.2050   8.3079   8.8674   8.9569   9.0681   9.1394   9.2218
     9.3504   9.3870   9.4496   9.5260   9.5443   9.5936   9.6143   9.6326
     9.6640   9.7420   9.7528   9.8000   9.8328   9.8660   9.8819   9.9561
     9.9850   9.9938  10.0623  10.0947  10.1034  10.1815  10.1992  10.3265
    10.3550  10.3915  10.4397  10.6031  10.6987  10.7486  10.7787  10.8263
    10.8524  10.9585  11.0424  11.1396  11.2321  11.2866  11.3507  11.4144
    11.4671  11.4950  11.5034  11.5322  11.5867  11.5983  11.6277  11.6412
    11.6551  11.6789  11.6916

     occupation numbers
     1.0000   1.0000   1.0000   1.0000   1.0000   1.0000   1.0000   1.0000
     1.0000   1.0000   1.0000   1.0000   1.0000   1.0000   1.0000   1.0000
     1.0000   1.0000   1.0000   1.0000   1.0000   1.0000   1.0000   1.0000
     1.0000   1.0000   1.0000   1.0000   1.0000   1.0000   1.0000   1.0000
     1.0000   1.0000   1.0000   1.0000   1.0000   1.0000   1.0000   1.0000
     1.0000   1.0000   1.0000   1.0000   1.0000   1.0000   1.0000   1.0000
     1.0000   1.0000   1.0000   1.0000   1.0000   1.0000   1.0000   1.0000
     1.0000   1.0000   1.0000   1.0000   1.0000   1.0000   1.0000   1.0000
     1.0000   1.0000   1.0000   1.0000   1.0000   1.0000   1.0000   1.0000
     1.0000   1.0000   1.0000   1.0000   1.0000   1.0000   1.0000   1.0000
     1.0000   1.0000   1.0000   1.0000   1.0000   1.0000   1.0000   1.0000
     1.0000   1.0000   1.0000   1.0000   1.0000   1.0000   1.0000   1.0000
     1.0000   1.0000   1.0000   1.0000   1.0000   1.0000   1.0000   1.0000
     1.0000   1.0000   1.0000   1.0000   1.0000   1.0000   1.0000   1.0000
     1.0000   1.0000   1.0000   1.0000   1.0000   1.0000   1.0000   1.0000
     1.0000   1.0000   1.0000   1.0000   1.0000   1.0000   1.0000   1.0000
     1.0000   1.0000   1.0000   1.0000   1.0000   1.0000   1.0000   1.0000
     1.0000   1.0000   1.0000   1.0000   1.0000   1.0000   1.0000   1.0000
     1.0000   1.0000   1.0000   1.0000   1.0000   1.0000   1.0000   1.0000
     1.0000   1.0000   1.0000   1.0000   1.0000   1.0000   1.0000   1.0000
     1.0000   1.0000   1.0000   1.0000   1.0000   1.0000   1.0000   1.0000
     1.0000   1.0000   1.0000   1.0000   1.0000   1.0000   1.0000   1.0000
     1.0000   1.0000   1.0000   1.0000   1.0000   1.0000   1.0000   1.0000
     1.0000   1.0000   1.0000   1.0000   1.0000   1.0000   1.0000   1.0000
     1.0000   1.0000   1.0000   1.0000   1.0000   1.0000   1.0000   1.0000
     1.0000   1.0000   1.0000   1.0000   1.0000   1.0000   1.0000   1.0000
     1.0000   1.0000   1.0000   1.0000   1.0000   1.0000   1.0000   1.0000
     1.0000   1.0000   1.0000   1.0000   1.0000   1.0000   1.0000   1.0000
     1.0000   1.0000   1.0000   1.0000   1.0000   1.0000   1.0000   1.0000
     1.0000   1.0000   1.0000   1.0000   1.0000   1.0000   1.0000   1.0000
     1.0000   1.0000   1.0000   1.0000   1.0000   1.0000   1.0000   1.0000
     1.0000   1.0000   1.0000   1.0000   1.0000   1.0000   1.0000   1.0000
     1.0000   1.0000   1.0000   1.0000   1.0000   1.0000   1.0000   1.0000
     1.0000   1.0000   1.0000   1.0000   1.0000   1.0000   1.0000   1.0000
     1.0000   1.0000   1.0000   1.0000   1.0000   1.0000   1.0000   1.0000
     1.0000   1.0000   1.0000   1.0000   1.0000   1.0000   1.0000   1.0000
     0.0000   0.0000   0.0000   0.0000   0.0000   0.0000   0.0000   0.0000
     0.0000   0.0000   0.0000   0.0000   0.0000   0.0000   0.0000   0.0000
     0.0000   0.0000   0.0000   0.0000   0.0000   0.0000   0.0000   0.0000
     0.0000   0.0000   0.0000   0.0000   0.0000   0.0000   0.0000   0.0000
     0.0000   0.0000   0.0000   0.0000   0.0000   0.0000   0.0000   0.0000
     0.0000   0.0000   0.0000   0.0000   0.0000   0.0000   0.0000   0.0000
     0.0000   0.0000   0.0000   0.0000   0.0000   0.0000   0.0000   0.0000
     0.0000   0.0000   0.0000

     the Fermi energy is     6.3461 ev

!    total energy              =  -10100.57613074 Ry
     total all-electron energy =   -139419.105179 Ry
     estimated scf accuracy    <          4.1E-09 Ry
     smearing contrib. (-TS)   =      -0.00000000 Ry
     internal energy E=F+TS    =  -10100.57613074 Ry

     The total energy is F=E-TS. E is the sum of the following terms:
     one-electron contribution =   -3088.89253010 Ry
     hartree contribution      =    2121.32549761 Ry
     xc contribution           =   -1661.71862976 Ry
     ewald contribution        =   -2984.70201120 Ry
     Hubbard energy            =       0.26864588 Ry
     one-center paw contrib.   =   -4486.85710316 Ry
      -> PAW hartree energy AE =     123.79018139 Ry
      -> PAW hartree energy PS =    -123.14297134 Ry
      -> PAW xc energy AE      =    -143.26879804 Ry
      -> PAW xc energy PS      =      47.20549442 Ry
      -> total E_H with PAW    =    2121.97270766 Ry
      -> total E_XC with PAW   =   -1757.78193339 Ry

     total magnetization       =     1.00 Bohr mag/cell
     absolute magnetization    =     1.06 Bohr mag/cell

     convergence has been achieved in  15 iterations

     Writing all to output data dir ./out/Cu_vac_q0_U3_unrlxd.save/

     General routines

     Parallel routines

     Hubbard U routines

     PAW routines

   This run was terminated on:   2: 9:26  18Jul2024

   JOB DONE.