     Program PWSCF v.7.2 starts on 25Jul2024 at 19:32:43

     Reading input from 2.Cu_vac_in_ZnS.scf.q0.U3.in

     Current dimensions of program PWSCF are:
     Max number of different atomic species (ntypx) = 10
     Max number of k-points (npk) =  40000
     Max angular momentum in pseudopotentials (lmaxx) =  4
     file S.pbe-n-kjpaw_psl.1.0.0.UPF: wavefunction(s)  3S 3P renormalized
     file Zn.pbe-dnl-kjpaw_psl.1.0.0.UPF: wavefunction(s)  4S 3D renormalized
     file Cu.pbe-spn-kjpaw_psl.1.0.0.UPF: wavefunction(s)  4S 3P 3D renormalized

     K-points division:     npool     =       7
     R & G space division:  proc/nbgrp/npool/nimage =     112
     Subspace diagonalization in iterative solution of the eigenvalue problem:
     one sub-group per band group will be used

     Using Slab Decomposition

     bravais-lattice index     =            1
     lattice parameter (alat)  =      20.5686  a.u.
     unit-cell volume          =    8701.8437 (a.u.)^3
     number of atoms/cell      =           63
     number of atomic types    =            3
     number of electrons       =       577.00
     number of Kohn-Sham states=          347
     kinetic-energy cutoff     =     150.0000  Ry
     charge density cutoff     =     600.0000  Ry
     scf convergence threshold =      1.0E-08
     mixing beta               =       0.7000
     number of iterations used =            8  plain     mixing
     Exchange-correlation= SLA  PW   PBX  PBC
                           (   1   4   3   4   0   0   0)
     Hubbard projectors: ortho-atomic
     Hubbard parameters of DFT+U (Dudarev formulation) in eV:
     U(Zn-3d) =  7.0000
     U(Cu-3d) =  3.0000

     Internal variables: lda_plus_u = T, lda_plus_u_kind = 0

     celldm(1)=  20.568554  celldm(2)=   0.000000  celldm(3)=   0.000000
     celldm(4)=   0.000000  celldm(5)=   0.000000  celldm(6)=   0.000000

     crystal axes: (cart. coord. in units of alat)
               a(1) = (   1.000000   0.000000   0.000000 )
               a(2) = (   0.000000   1.000000   0.000000 )
               a(3) = (   0.000000   0.000000   1.000000 )

     reciprocal axes: (cart. coord. in units 2 pi/alat)
               b(1) = (  1.000000  0.000000  0.000000 )
               b(2) = (  0.000000  1.000000  0.000000 )
               b(3) = (  0.000000  0.000000  1.000000 )

     PseudoPot. # 1 for S  read from file:
     /arf/home/amuhaymin/pseudo/S.pbe-n-kjpaw_psl.1.0.0.UPF
     MD5 check sum: fb45dfebcf3e72a4e1bd4a866ec2e262
     Pseudo is Projector augmented-wave + core cor, Zval =  6.0
     Generated using &quot;atomic&quot; code by A. Dal Corso  v.6.3
     Shape of augmentation charge: PSQ
     Using radial grid of 1151 points,  6 beta functions with:
                l(1) =   0
                l(2) =   0
                l(3) =   1
                l(4) =   1
                l(5) =   2
                l(6) =   2
     Q(r) pseudized with 0 coefficients

     PseudoPot. # 2 for Zn read from file:
     /arf/home/amuhaymin/pseudo/Zn.pbe-dnl-kjpaw_psl.1.0.0.UPF
     MD5 check sum: c608214d9520ac179f507641260889e3
     Pseudo is Projector augmented-wave + core cor, Zval = 12.0
     Generated using &quot;atomic&quot; code by A. Dal Corso  v.6.2.2
     Shape of augmentation charge: PSQ
     Using radial grid of 1201 points,  6 beta functions with:
                l(1) =   0
                l(2) =   0
                l(3) =   1
                l(4) =   1
                l(5) =   2
                l(6) =   2
     Q(r) pseudized with 0 coefficients

     PseudoPot. # 3 for Cu read from file:
     /arf/home/amuhaymin/pseudo/Cu.pbe-spn-kjpaw_psl.1.0.0.UPF
     MD5 check sum: e7cbaad2f97193e5fe23251a619a52b0
     Pseudo is Projector augmented-wave + core cor, Zval = 19.0
     Generated using &quot;atomic&quot; code by A. Dal Corso  v.6.3
     Shape of augmentation charge: PSQ
     Using radial grid of 1199 points,  6 beta functions with:
                l(1) =   0
                l(2) =   0
                l(3) =   1
                l(4) =   1
                l(5) =   2
                l(6) =   2
     Q(r) pseudized with 0 coefficients

     atomic species   valence    mass     pseudopotential
        S              6.00    32.06500     S ( 1.00)
        Zn            12.00    65.38000     Zn( 1.00)
        Cu            19.00    63.54600     Cu( 1.00)

     Starting magnetic structure
     atomic species   magnetization
        S            0.000
        Zn           0.000
        Cu           0.053

      6 Sym. Ops. (no inversion) found

                                    s                        frac. trans.

      isym =  1     identity

 cryst.   s( 1) = (     1          0          0      )
                  (     0          1          0      )
                  (     0          0          1      )

 cart.    s( 1) = (  1.0000000  0.0000000  0.0000000 )
                  (  0.0000000  1.0000000  0.0000000 )
                  (  0.0000000  0.0000000  1.0000000 )

      isym =  2     120 deg rotation - cart. axis [-1,-1,-1]

[...]

      isym =  3     120 deg rotation - cart. axis [1,1,1]

[...]

      isym =  4     inv. 180 deg rotation - cart. axis [1,-1,0]

[...]

      isym =  6     inv. 180 deg rotation - cart. axis [0,1,-1]

 cryst.   s( 6) = (     1          0          0      )
                  (     0          0          1      )
                  (     0          1          0      )

 cart.    s( 6) = (  1.0000000  0.0000000  0.0000000 )
                  (  0.0000000  0.0000000  1.0000000 )
                  (  0.0000000  1.0000000  0.0000000 )

     point group C_3v (3m)
     there are  3 classes
     the character table:

       E     2C3   3s_v
A_1    1.00  1.00  1.00
A_2    1.00  1.00 -1.00
E      2.00 -1.00  0.00

     the symmetry operations in each class and the name of the first element:

     E        1
          identity
     2C3      2    3
          120 deg rotation - cart. axis [-1,-1,-1]
     3s_v     4    5    6
          inv. 180 deg rotation - cart. axis [1,-1,0]

   Cartesian axes

     site n.     atom                  positions (alat units)
         1           Zn  tau(   1) = (   0.0004761   0.0004761   0.0004761  )
         2           Zn  tau(   2) = (   0.0002964   0.2504489   0.2504489  )
         3           Zn  tau(   3) = (   0.2504489   0.0002964   0.2504489  )
         4           Zn  tau(   4) = (   0.2504489   0.2504489   0.0002964  )
         5           S   tau(   5) = (   0.1255109   0.3752399   0.3752399  )
         6           S   tau(   6) = (   0.1253021   0.1253021   0.1253021  )
         7           S   tau(   7) = (   0.3752399   0.3752399   0.1255109  )
         8           S   tau(   8) = (   0.3752399   0.1255109   0.3752399  )
         9           Zn  tau(   9) = (   0.0003722   0.0003722   0.4999897  )
        10           Zn  tau(  10) = (  -0.0000259   0.2511995   0.7499455  )
        11           Zn  tau(  11) = (   0.2511995  -0.0000259   0.7499455  )
        12           Zn  tau(  12) = (   0.2519020   0.2519020   0.5024634  )
        13           S   tau(  13) = (   0.1249220   0.3756340   0.8752521  )
        14           S   tau(  14) = (   0.1249292   0.1249292   0.6254490  )
        15           S   tau(  15) = (   0.3763136   0.3763136   0.6259285  )
        16           S   tau(  16) = (   0.3756340   0.1249220   0.8752521  )
        17           Zn  tau(  17) = (   0.0003722   0.4999897   0.0003722  )
        18           Zn  tau(  18) = (  -0.0000259   0.7499455   0.2511995  )
        19           Zn  tau(  19) = (   0.2519020   0.5024634   0.2519020  )
        20           Zn  tau(  20) = (   0.2511995   0.7499455  -0.0000259  )
        21           S   tau(  21) = (   0.1249220   0.8752521   0.3756340  )
        22           S   tau(  22) = (   0.1249292   0.6254490   0.1249292  )
        23           S   tau(  23) = (   0.3756340   0.8752521   0.1249220  )
        24           S   tau(  24) = (   0.3763136   0.6259285   0.3763136  )
        25           Zn  tau(  25) = (   0.0011383   0.5000512   0.5000512  )
        26           Zn  tau(  26) = (   0.0021588   0.7500410   0.7500410  )
        27           Zn  tau(  27) = (   0.2507566   0.4981574   0.7479076  )
        28           Zn  tau(  28) = (   0.2507566   0.7479076   0.4981574  )
        29           S   tau(  29) = (   0.1258862   0.8752539   0.8752539  )
        30           S   tau(  30) = (   0.1253174   0.6251065   0.6251065  )
        31           S   tau(  31) = (   0.3769094   0.8730081   0.6241715  )
        32           S   tau(  32) = (   0.3769094   0.6241715   0.8730081  )
        33           Zn  tau(  33) = (   0.4999897   0.0003722   0.0003722  )
        34           Zn  tau(  34) = (   0.5024634   0.2519020   0.2519020  )
        35           Zn  tau(  35) = (   0.7499455  -0.0000259   0.2511995  )
        36           Zn  tau(  36) = (   0.7499455   0.2511995  -0.0000259  )
        37           S   tau(  37) = (   0.6259285   0.3763136   0.3763136  )
        38           S   tau(  38) = (   0.6254490   0.1249292   0.1249292  )
        39           S   tau(  39) = (   0.8752521   0.3756340   0.1249220  )
        40           S   tau(  40) = (   0.8752521   0.1249220   0.3756340  )
        41           Zn  tau(  41) = (   0.5000512   0.0011383   0.5000512  )
        42           Zn  tau(  42) = (   0.4981574   0.2507566   0.7479076  )
        43           Zn  tau(  43) = (   0.7500410   0.0021588   0.7500410  )
        44           Zn  tau(  44) = (   0.7479076   0.2507566   0.4981574  )
        45           S   tau(  45) = (   0.6241715   0.3769094   0.8730081  )
        46           S   tau(  46) = (   0.6251065   0.1253174   0.6251065  )
        47           S   tau(  47) = (   0.8730081   0.3769094   0.6241715  )
        48           S   tau(  48) = (   0.8752539   0.1258862   0.8752539  )
        49           Zn  tau(  49) = (   0.5000512   0.5000512   0.0011383  )
        50           Zn  tau(  50) = (   0.4981574   0.7479076   0.2507566  )
        51           Zn  tau(  51) = (   0.7479076   0.4981574   0.2507566  )
        52           Zn  tau(  52) = (   0.7500410   0.7500410   0.0021588  )
        53           S   tau(  53) = (   0.6241715   0.8730081   0.3769094  )
        54           S   tau(  54) = (   0.6251065   0.6251065   0.1253174  )
        55           S   tau(  55) = (   0.8752539   0.8752539   0.1258862  )
        56           S   tau(  56) = (   0.8730081   0.6241715   0.3769094  )
        57           Cu  tau(  57) = (   0.4771341   0.4771341   0.4771341  )
        58           Zn  tau(  58) = (   0.4999327   0.7529984   0.7529984  )
        59           Zn  tau(  59) = (   0.7529984   0.4999327   0.7529984  )
        60           Zn  tau(  60) = (   0.7529984   0.7529984   0.4999327  )
        61           S   tau(  61) = (   0.6271716   0.8749279   0.8749279  )
        62           S   tau(  62) = (   0.8749279   0.8749279   0.6271716  )
        63           S   tau(  63) = (   0.8749279   0.6271716   0.8749279  )

   Crystallographic axes

     site n.     atom                  positions (cryst. coord.)
         1           Zn  tau(   1) = (  0.0004761  0.0004761  0.0004761  )
[...]
     atom  30 (R=0.085)  charge=  3.6597  magn= -0.0001
     atom  31 (R=0.085)  charge=  3.6519  magn=  0.0115
     atom  32 (R=0.085)  charge=  3.6519  magn=  0.0115
     atom  33 (R=0.088)  charge= 10.1111  magn=  0.0025
     atom  34 (R=0.088)  charge= 10.1085  magn=  0.0008
     atom  35 (R=0.088)  charge= 10.1068  magn=  0.0020
     atom  36 (R=0.088)  charge= 10.1068  magn=  0.0020
     atom  37 (R=0.085)  charge=  3.6682  magn=  0.0032
     atom  38 (R=0.085)  charge=  3.6543  magn=  0.0067
     atom  39 (R=0.085)  charge=  3.6577  magn=  0.0007
     atom  40 (R=0.085)  charge=  3.6577  magn=  0.0007
     atom  41 (R=0.088)  charge= 10.1122  magn= -0.0001
     atom  42 (R=0.088)  charge= 10.1147  magn= -0.0000
     atom  43 (R=0.088)  charge= 10.1139  magn= -0.0001
     atom  44 (R=0.088)  charge= 10.1147  magn= -0.0000
     atom  45 (R=0.085)  charge=  3.6519  magn=  0.0115
     atom  46 (R=0.085)  charge=  3.6597  magn= -0.0001
     atom  47 (R=0.085)  charge=  3.6519  magn=  0.0115
     atom  48 (R=0.085)  charge=  3.6573  magn=  0.0010
     atom  49 (R=0.088)  charge= 10.1122  magn= -0.0001
     atom  50 (R=0.088)  charge= 10.1147  magn= -0.0000
     atom  51 (R=0.088)  charge= 10.1147  magn= -0.0000
     atom  52 (R=0.088)  charge= 10.1139  magn= -0.0001
     atom  53 (R=0.085)  charge=  3.6519  magn=  0.0115
     atom  54 (R=0.085)  charge=  3.6597  magn= -0.0001
     atom  55 (R=0.085)  charge=  3.6573  magn=  0.0010
     atom  56 (R=0.085)  charge=  3.6519  magn=  0.0115
     atom  57 (R=0.085)  charge= 17.2285  magn=  0.0078
     atom  58 (R=0.088)  charge= 10.0867  magn=  0.0338
     atom  59 (R=0.088)  charge= 10.0867  magn=  0.0338
     atom  60 (R=0.088)  charge= 10.0867  magn=  0.0338
     atom  61 (R=0.085)  charge=  3.6558  magn=  0.0177
     atom  62 (R=0.085)  charge=  3.6558  magn=  0.0177
     atom  63 (R=0.085)  charge=  3.6558  magn=  0.0177

     End of self-consistent calculation

 ------ SPIN UP ------------

          k = 0.0000 0.0000 0.0000 (269825 PWs)   bands (ev):

  -104.4412 -61.8912 -61.8341 -61.8341  -7.5927  -7.1942  -7.1942  -7.1755
    -7.1613  -7.1613  -7.1129  -7.0041  -7.0041  -6.9849  -6.9517  -6.9514
    -6.9514  -6.9204  -6.9204  -6.9172  -6.9172  -6.9144  -6.9048  -6.8594
    -6.8591  -6.8591  -6.7645  -6.7645  -6.7350  -6.7271  -6.7013  -6.6931
    -6.6931  -6.5851  -6.5851  -3.8986  -3.8844  -3.8844  -3.8840  -3.8774
    -3.8774  -3.8622  -3.8597  -3.8597  -3.8470  -3.8399  -3.8399  -3.8276
    -3.8188  -3.8188  -3.7785  -3.7759  -3.7759  -3.7528  -3.7528  -3.7493
    -3.7459  -3.7459  -3.7383  -3.7383  -3.7380  -3.7264  -3.7264  -3.7256
    -3.7236  -3.7236  -3.7232  -3.7215  -3.7114  -3.7112  -3.7112  -3.7091
    -3.7091  -3.7055  -3.7055  -3.7041  -3.6991  -3.6928  -3.6928  -3.6888
    -3.6869  -3.6833  -3.6833  -3.6809  -3.6734  -3.6734  -3.6654  -3.6654
    -3.6603  -3.6574  -3.6574  -3.6555  -3.6555  -3.6457  -3.6457  -3.6414
    -3.6414  -3.6391  -3.6369  -3.6369  -3.6341  -3.6341  -3.6332  -3.6312
    -3.6144  -3.6093  -3.6093  -3.6020  -3.6020  -3.5976  -3.5970  -3.5862
    -3.5862  -3.5847  -3.5793  -3.5793  -3.5775  -3.5733  -3.5733  -3.5697
    -3.5685  -3.5685  -3.5661  -3.5661  -3.5636  -3.5617  -3.5617  -3.5555
    -3.5555  -3.5545  -3.5505  -3.5505  -3.5467  -3.5390  -3.5368  -3.5363
    -3.5363  -3.5287  -3.5287  -3.5222  -3.5222  -3.5218  -3.5207  -3.5207
    -3.5146  -3.5146  -3.5080  -3.5052  -3.4995  -3.4995  -3.4949  -3.4748
    -3.4748  -3.4677  -3.4677  -3.4662  -3.4549  -3.4549  -3.4538  -3.4508
    -3.4508  -3.4502  -3.4488  -3.4315  -3.4315  -3.4218  -3.2493  -3.2421
    -3.2421  -3.2402  -3.2402  -3.2341  -3.2097  -3.2097  -3.1970  -3.1970
    -3.1937  -3.1395  -3.1211  -3.1211  -3.0951  -3.0147  -3.0147  -3.0077
    -2.9088  -2.8830  -2.8830  -2.8720  -2.8518  -2.8518   0.2045   0.2971
     0.3055   0.3055   0.6529   0.6543   0.6543   0.8441   0.8441   0.8749
     0.8920   0.8978   0.8978   1.0653   1.1963   1.1963   1.2487   1.2487
     1.2707   1.2738   1.2955   1.2955   1.4472   1.4472   1.7338   2.2788
     2.2788   2.3558   2.4806   2.4806   2.5280   2.5280   2.5291   2.5598
     2.5701   2.5701   2.6494   2.7084   2.7084   2.7264   2.7295   2.7330
     2.7330   2.7555   2.7555   2.7716   2.7716   2.7854   2.8064   2.8211
     2.8549   2.8549   3.0001   3.0001   3.0488   3.1706   3.1737   3.1737
     3.3034   3.3034   3.4663   3.5630   3.5630   3.7605   3.7605   4.0176
     4.0176   4.0180   4.0294   4.0509   4.0862   4.0862   4.1504   4.1504
     4.1578   4.2247   4.2294   4.2294   4.3134   4.3134   4.3191   4.3445
     4.3515   4.3515   4.3795   4.3795   4.3900   4.3900   4.4147   4.4147
     4.4456   4.6932   4.6932   4.9270   4.9270   5.1241   5.5225   5.5225
     6.2554   7.7333   8.4424   8.4424   8.7332   8.7740   8.7817   8.7817
     8.9419   8.9419   9.0718   9.5226   9.5226   9.5254   9.7085   9.8651
     9.8651   9.9311   9.9427   9.9427  10.0020  10.0020  10.0034  10.0261
    10.0279  10.0279  10.1752  10.1752  10.1832  10.1880  10.2053  10.2053
    10.2402  10.2402  10.3436  10.6460  10.6492  10.6492  11.0244  11.1486
    11.1486  11.2129  11.2129  11.3322  11.3465  11.3465  11.3690  11.6986
    11.6987  11.7085  11.8504  11.8505  11.8684  11.8756  11.9972  12.0167
    12.0167  12.0345  12.0497

     occupation numbers
     1.0000   1.0000   1.0000   1.0000   1.0000   1.0000   1.0000   1.0000
     1.0000   1.0000   1.0000   1.0000   1.0000   1.0000   1.0000   1.0000
     1.0000   1.0000   1.0000   1.0000   1.0000   1.0000   1.0000   1.0000
     1.0000   1.0000   1.0000   1.0000   1.0000   1.0000   1.0000   1.0000
     1.0000   1.0000   1.0000   1.0000   1.0000   1.0000   1.0000   1.0000
     1.0000   1.0000   1.0000   1.0000   1.0000   1.0000   1.0000   1.0000
     1.0000   1.0000   1.0000   1.0000   1.0000   1.0000   1.0000   1.0000
     1.0000   1.0000   1.0000   1.0000   1.0000   1.0000   1.0000   1.0000
     1.0000   1.0000   1.0000   1.0000   1.0000   1.0000   1.0000   1.0000
     1.0000   1.0000   1.0000   1.0000   1.0000   1.0000   1.0000   1.0000
     1.0000   1.0000   1.0000   1.0000   1.0000   1.0000   1.0000   1.0000
     1.0000   1.0000   1.0000   1.0000   1.0000   1.0000   1.0000   1.0000
     1.0000   1.0000   1.0000   1.0000   1.0000   1.0000   1.0000   1.0000
     1.0000   1.0000   1.0000   1.0000   1.0000   1.0000   1.0000   1.0000
     1.0000   1.0000   1.0000   1.0000   1.0000   1.0000   1.0000   1.0000
     1.0000   1.0000   1.0000   1.0000   1.0000   1.0000   1.0000   1.0000
     1.0000   1.0000   1.0000   1.0000   1.0000   1.0000   1.0000   1.0000
     1.0000   1.0000   1.0000   1.0000   1.0000   1.0000   1.0000   1.0000
     1.0000   1.0000   1.0000   1.0000   1.0000   1.0000   1.0000   1.0000
     1.0000   1.0000   1.0000   1.0000   1.0000   1.0000   1.0000   1.0000
     1.0000   1.0000   1.0000   1.0000   1.0000   1.0000   1.0000   1.0000
     1.0000   1.0000   1.0000   1.0000   1.0000   1.0000   1.0000   1.0000
     1.0000   1.0000   1.0000   1.0000   1.0000   1.0000   1.0000   1.0000
     1.0000   1.0000   1.0000   1.0000   1.0000   1.0000   1.0000   1.0000
     1.0000   1.0000   1.0000   1.0000   1.0000   1.0000   1.0000   1.0000
     1.0000   1.0000   1.0000   1.0000   1.0000   1.0000   1.0000   1.0000
     1.0000   1.0000   1.0000   1.0000   1.0000   1.0000   1.0000   1.0000
     1.0000   1.0000   1.0000   1.0000   1.0000   1.0000   1.0000   1.0000
     1.0000   1.0000   1.0000   1.0000   1.0000   1.0000   1.0000   1.0000
     1.0000   1.0000   1.0000   1.0000   1.0000   1.0000   1.0000   1.0000
     1.0000   1.0000   1.0000   1.0000   1.0000   1.0000   1.0000   1.0000
     1.0000   1.0000   1.0000   1.0000   1.0000   1.0000   1.0000   1.0000
     1.0000   1.0000   1.0000   1.0000   1.0000   1.0000   1.0000   1.0000
     1.0000   1.0000   1.0000   1.0000   1.0000   1.0000   1.0000   1.0000
     1.0000   1.0000   1.0000   1.0000   1.0000   1.0000   1.0000   1.0000
     1.0000   1.0000   1.0000   1.0000   1.0000   1.0000   1.0000   1.0000
     1.0000   0.0000   0.0000   0.0000   0.0000   0.0000   0.0000   0.0000
     0.0000   0.0000   0.0000   0.0000   0.0000   0.0000   0.0000   0.0000
     0.0000   0.0000   0.0000   0.0000   0.0000   0.0000   0.0000   0.0000
     0.0000   0.0000   0.0000   0.0000   0.0000   0.0000   0.0000   0.0000
     0.0000   0.0000   0.0000   0.0000   0.0000   0.0000   0.0000   0.0000
     0.0000   0.0000   0.0000   0.0000   0.0000   0.0000   0.0000   0.0000
     0.0000   0.0000   0.0000   0.0000   0.0000   0.0000   0.0000   0.0000
     0.0000   0.0000   0.0000

[...]

          k =-0.5000-0.5000-0.5000 (269968 PWs)   bands (ev):

[...]

 ------ SPIN DOWN ----------

[...]

          k =-0.2500 0.0000 0.2500 (269929 PWs)   bands (ev):

[...]

          k = 0.2500-0.2500-0.5000 (269988 PWs)   bands (ev):

  -104.4323 -61.8765 -61.8284 -61.8284  -7.4282  -7.3877  -7.2393  -7.2271
    -7.2038  -7.1686  -7.0939  -7.0375  -6.9789  -6.9521  -6.9435  -6.9312
    -6.9138  -6.8808  -6.8737  -6.8659  -6.8600  -6.8378  -6.8325  -6.8190
    -6.8146  -6.8001  -6.7805  -6.7756  -6.7598  -6.7553  -6.7369  -6.7266
    -6.7021  -6.6099  -6.5994  -3.8734  -3.8697  -3.8678  -3.8645  -3.8616
    -3.8570  -3.8552  -3.8300  -3.8293  -3.8220  -3.8199  -3.8189  -3.8106
    -3.8061  -3.8048  -3.7716  -3.7695  -3.7625  -3.7577  -3.7554  -3.7524
    -3.7474  -3.7454  -3.7446  -3.7404  -3.7389  -3.7339  -3.7328  -3.7298
    -3.7270  -3.7214  -3.7196  -3.7154  -3.7148  -3.7118  -3.7081  -3.7051
    -3.7032  -3.7003  -3.6958  -3.6930  -3.6907  -3.6878  -3.6873  -3.6836
    -3.6807  -3.6769  -3.6717  -3.6694  -3.6684  -3.6670  -3.6643  -3.6617
    -3.6590  -3.6585  -3.6548  -3.6528  -3.6503  -3.6493  -3.6460  -3.6413
    -3.6401  -3.6353  -3.6310  -3.6300  -3.6269  -3.6219  -3.6206  -3.6183
    -3.6146  -3.6137  -3.6123  -3.6087  -3.6041  -3.6031  -3.6018  -3.5968
    -3.5910  -3.5904  -3.5871  -3.5821  -3.5813  -3.5807  -3.5783  -3.5777
    -3.5763  -3.5707  -3.5685  -3.5670  -3.5633  -3.5598  -3.5590  -3.5549
    -3.5510  -3.5509  -3.5486  -3.5471  -3.5456  -3.5430  -3.5415  -3.5386
    -3.5359  -3.5348  -3.5330  -3.5312  -3.5286  -3.5265  -3.5176  -3.5149
    -3.5121  -3.5076  -3.5025  -3.4992  -3.4869  -3.4851  -3.4822  -3.4806
    -3.4791  -3.4678  -3.4634  -3.4601  -3.4581  -3.4551  -3.4525  -3.4432
    -3.4421  -3.4403  -3.4332  -3.4306  -3.4236  -3.4023  -3.3836  -3.3002
    -3.2742  -3.2689  -3.2551  -3.1772  -3.1719  -3.1688  -3.1348  -3.1225
    -3.1136  -3.0554  -3.0427  -3.0396  -3.0290  -3.0118  -3.0076  -2.9947
    -2.9759  -2.9636  -2.9554  -2.9427  -2.9370  -2.9252   0.5176   0.5497
     0.6355   0.6971   0.7156   0.7323   0.7513   0.7688   0.7767   0.8024
     0.8119   0.8345   0.8462   0.8677   0.8882   0.8955   0.9851   1.0999
     1.1580   1.2195   1.2715   1.3283   1.3702   1.4213   1.5604   1.6849
     2.1624   2.2542   2.3129   2.3657   2.3975   2.4337   2.4682   2.4961
     2.5976   2.6424   2.6513   2.6651   2.6990   2.7506   2.7925   2.8855
     2.9180   2.9478   3.1055   3.1517   3.2091   3.2203   3.2504   3.3256
     3.3420   3.3552   3.3609   3.3695   3.3880   3.4175   3.4562   3.4653
     3.4871   3.5030   3.5418   3.5506   3.5737   3.5910   3.5956   3.6342
     3.6590   3.7229   3.7506   3.7604   3.8250   3.8354   3.8861   3.9464
     3.9774   4.0063   4.0268   4.0947   4.1180   4.1369   4.1699   4.2009
     4.2417   4.2743   4.2858   4.3501   4.4251   4.5064   4.5921   4.6685
     4.6837   4.6993   4.7727   4.8162   4.8613   4.8853   5.3908   5.4401
     7.1471   8.3554   8.4635   8.9422   8.9665   9.0881   9.1364   9.3055
     9.3628   9.3785   9.4437   9.4921   9.5729   9.5934   9.6089   9.6375
     9.6854   9.7448   9.7684   9.7879   9.8179   9.8658   9.8866   9.9398
     9.9552   9.9822  10.0628  10.0756  10.0977  10.1936  10.2221  10.3341
    10.3618  10.4332  10.4813  10.6317  10.6791  10.7585  10.8091  10.8371
    10.8781  10.9546  11.0128  11.1079  11.2300  11.2765  11.3354  11.4155
    11.4715  11.4811  11.5004  11.5249  11.5758  11.5851  11.6182  11.6306
    11.6356  11.6525  11.6818

     occupation numbers
     1.0000   1.0000   1.0000   1.0000   1.0000   1.0000   1.0000   1.0000
     1.0000   1.0000   1.0000   1.0000   1.0000   1.0000   1.0000   1.0000
     1.0000   1.0000   1.0000   1.0000   1.0000   1.0000   1.0000   1.0000
     1.0000   1.0000   1.0000   1.0000   1.0000   1.0000   1.0000   1.0000
     1.0000   1.0000   1.0000   1.0000   1.0000   1.0000   1.0000   1.0000
     1.0000   1.0000   1.0000   1.0000   1.0000   1.0000   1.0000   1.0000
     1.0000   1.0000   1.0000   1.0000   1.0000   1.0000   1.0000   1.0000
     1.0000   1.0000   1.0000   1.0000   1.0000   1.0000   1.0000   1.0000
     1.0000   1.0000   1.0000   1.0000   1.0000   1.0000   1.0000   1.0000
     1.0000   1.0000   1.0000   1.0000   1.0000   1.0000   1.0000   1.0000
     1.0000   1.0000   1.0000   1.0000   1.0000   1.0000   1.0000   1.0000
     1.0000   1.0000   1.0000   1.0000   1.0000   1.0000   1.0000   1.0000
     1.0000   1.0000   1.0000   1.0000   1.0000   1.0000   1.0000   1.0000
     1.0000   1.0000   1.0000   1.0000   1.0000   1.0000   1.0000   1.0000
     1.0000   1.0000   1.0000   1.0000   1.0000   1.0000   1.0000   1.0000
     1.0000   1.0000   1.0000   1.0000   1.0000   1.0000   1.0000   1.0000
     1.0000   1.0000   1.0000   1.0000   1.0000   1.0000   1.0000   1.0000
     1.0000   1.0000   1.0000   1.0000   1.0000   1.0000   1.0000   1.0000
     1.0000   1.0000   1.0000   1.0000   1.0000   1.0000   1.0000   1.0000
     1.0000   1.0000   1.0000   1.0000   1.0000   1.0000   1.0000   1.0000
     1.0000   1.0000   1.0000   1.0000   1.0000   1.0000   1.0000   1.0000
     1.0000   1.0000   1.0000   1.0000   1.0000   1.0000   1.0000   1.0000
     1.0000   1.0000   1.0000   1.0000   1.0000   1.0000   1.0000   1.0000
     1.0000   1.0000   1.0000   1.0000   1.0000   1.0000   1.0000   1.0000
     1.0000   1.0000   1.0000   1.0000   1.0000   1.0000   1.0000   1.0000
     1.0000   1.0000   1.0000   1.0000   1.0000   1.0000   1.0000   1.0000
     1.0000   1.0000   1.0000   1.0000   1.0000   1.0000   1.0000   1.0000
     1.0000   1.0000   1.0000   1.0000   1.0000   1.0000   1.0000   1.0000
     1.0000   1.0000   1.0000   1.0000   1.0000   1.0000   1.0000   1.0000
     1.0000   1.0000   1.0000   1.0000   1.0000   1.0000   1.0000   1.0000
     1.0000   1.0000   1.0000   1.0000   1.0000   1.0000   1.0000   1.0000
     1.0000   1.0000   1.0000   1.0000   1.0000   1.0000   1.0000   1.0000
     1.0000   1.0000   1.0000   1.0000   1.0000   1.0000   1.0000   1.0000
     1.0000   1.0000   1.0000   1.0000   1.0000   1.0000   1.0000   1.0000
     1.0000   1.0000   1.0000   1.0000   1.0000   1.0000   1.0000   1.0000
     1.0000   1.0000   1.0000   1.0000   1.0000   1.0000   1.0000   1.0000
     0.0000   0.0000   0.0000   0.0000   0.0000   0.0000   0.0000   0.0000
     0.0000   0.0000   0.0000   0.0000   0.0000   0.0000   0.0000   0.0000
     0.0000   0.0000   0.0000   0.0000   0.0000   0.0000   0.0000   0.0000
     0.0000   0.0000   0.0000   0.0000   0.0000   0.0000   0.0000   0.0000
     0.0000   0.0000   0.0000   0.0000   0.0000   0.0000   0.0000   0.0000
     0.0000   0.0000   0.0000   0.0000   0.0000   0.0000   0.0000   0.0000
     0.0000   0.0000   0.0000   0.0000   0.0000   0.0000   0.0000   0.0000
     0.0000   0.0000   0.0000

     the Fermi energy is     6.6666 ev

!    total energy              =  -10100.59489071 Ry
     total all-electron energy =   -139419.123939 Ry
     estimated scf accuracy    <          8.4E-09 Ry
     smearing contrib. (-TS)   =      -0.00000000 Ry
     internal energy E=F+TS    =  -10100.59489071 Ry

     The total energy is F=E-TS. E is the sum of the following terms:
     one-electron contribution =   -3114.39127120 Ry
     hartree contribution      =    2133.88224872 Ry
     xc contribution           =   -1661.80685404 Ry
     ewald contribution        =   -2971.66737799 Ry
     Hubbard energy            =       0.27175208 Ry
     one-center paw contrib.   =   -4486.88338827 Ry
      -> PAW hartree energy AE =     123.68445598 Ry
      -> PAW hartree energy PS =    -123.03694477 Ry
      -> PAW xc energy AE      =    -143.26138948 Ry
      -> PAW xc energy PS      =      47.19815590 Ry
      -> total E_H with PAW    =    2134.52975993 Ry
      -> total E_XC with PAW   =   -1757.87008762 Ry

     total magnetization       =     1.00 Bohr mag/cell
     absolute magnetization    =     1.06 Bohr mag/cell

     convergence has been achieved in  15 iterations

     Writing all to output data dir ./out/Cu_vac_q0_U3.save/

     General routines

     Parallel routines

     Hubbard U routines

     PAW routines

   This run was terminated on:  19:40:24  25Jul2024

   JOB DONE.