     Program PWSCF v.7.2 starts on 16Feb2024 at  9:19: 1

     Reading input from scf.k-18.in

     Current dimensions of program PWSCF are:
     Max number of different atomic species (ntypx) = 10
     Max number of k-points (npk) =  40000
     Max angular momentum in pseudopotentials (lmaxx) =  4
     file Zn.pbe-dnl-kjpaw_psl.1.0.0.UPF: wavefunction(s)  4S 3D renormalized
     Message from routine setup:
     using ibrav=0 with symmetry is DISCOURAGED, use correct ibrav instead

     R & G space division:  proc/nbgrp/npool/nimage =      10
     Subspace diagonalization in iterative solution of the eigenvalue problem:
     a serial algorithm will be used

     Using Slab Decomposition

     bravais-lattice index     =            0
     lattice parameter (alat)  =       4.9404  a.u.
     unit-cell volume          =     194.6564 (a.u.)^3
     number of atoms/cell      =            2
     number of atomic types    =            1
     number of electrons       =        24.00
     number of Kohn-Sham states=           16
     kinetic-energy cutoff     =      70.0000  Ry
     charge density cutoff     =     280.0000  Ry
     scf convergence threshold =      4.0E-08
     mixing beta               =       0.7000
     number of iterations used =            8  plain     mixing
     Exchange-correlation= SLA  PW   PBX  PBC
                           (   1   4   3   4   0   0   0)

     celldm(1)=   4.940424  celldm(2)=   0.000000  celldm(3)=   0.000000
     celldm(4)=   0.000000  celldm(5)=   0.000000  celldm(6)=   0.000000

     crystal axes: (cart. coord. in units of alat)
               a(1) = (   1.000000   0.000000   0.000000 )
               a(2) = (  -0.500000   0.866025   0.000000 )
               a(3) = (   0.000000   0.000000   1.863998 )

     reciprocal axes: (cart. coord. in units 2 pi/alat)
               b(1) = (  1.000000  0.577350 -0.000000 )
               b(2) = (  0.000000  1.154701  0.000000 )
               b(3) = (  0.000000 -0.000000  0.536481 )

     PseudoPot. # 1 for Zn read from file:
     /home/abdul/git_repo/ZnS_Cu-Vacancy/pseudo/QE/Zn.pbe-dnl-kjpaw_psl.1.0.0.UPF
     MD5 check sum: c608214d9520ac179f507641260889e3
     Pseudo is Projector augmented-wave + core cor, Zval = 12.0
     Generated using &quot;atomic&quot; code by A. Dal Corso  v.6.2.2
     Shape of augmentation charge: PSQ
     Using radial grid of 1201 points,  6 beta functions with:
                l(1) =   0
                l(2) =   0
                l(3) =   1
                l(4) =   1
                l(5) =   2
                l(6) =   2
     Q(r) pseudized with 0 coefficients

     atomic species   valence    mass     pseudopotential
        Zn            12.00    65.38000     Zn( 1.00)

     24 Sym. Ops., with inversion, found (12 have fractional translation)

                                    s                        frac. trans.

      isym =  1     identity

 cryst.   s( 1) = (     1          0          0      )
                  (     0          1          0      )
                  (     0          0          1      )

 cart.    s( 1) = (  1.0000000  0.0000000  0.0000000 )
                  (  0.0000000  1.0000000  0.0000000 )
                  (  0.0000000  0.0000000  1.0000000 )

      isym =  2     180 deg rotation - cart. axis [0,0,1]

 cryst.   s( 2) = (    -1          0          0      )    f =(  0.0000000 )
                  (     0         -1          0      )       (  0.0000000 )
                  (     0          0          1      )       ( -0.5000000 )

 cart.    s( 2) = ( -1.0000000  0.0000000  0.0000000 )    f =(  0.0000000 )
                  (  0.0000000 -1.0000000  0.0000000 )       (  0.0000000 )
                  (  0.0000000  0.0000000  1.0000000 )       ( -0.9319989 )

[...]

      isym =  4     180 deg rotation - cart. axis [1,0,0]

[...]

      isym =  5      60 deg rotation - cryst. axis [0,0,1]

[...]

 cryst.   s( 8) = (    -1         -1          0      )
                  (     1          0          0      )
                  (     0          0          1      )

 cart.    s( 8) = ( -0.5000000  0.8660254  0.0000000 )
                  ( -0.8660254 -0.5000000  0.0000000 )
                  (  0.0000000  0.0000000  1.0000000 )

[...]

 cryst.   s( 9) = (     0         -1          0      )    f =(  0.0000000 )
                  (    -1          0          0      )       (  0.0000000 )
                  (     0          0         -1      )       (  0.5000000 )

 cart.    s( 9) = (  0.5000000 -0.8660254  0.0000000 )    f =(  0.0000000 )
                  ( -0.8660254 -0.5000000  0.0000000 )       (  0.0000000 )
                  (  0.0000000  0.0000000 -1.0000000 )       (  0.9319989 )

[...]

 cryst.   s(10) = (     1          1          0      )    f =(  0.0000000 )
                  (     0         -1          0      )       ( -0.0000000 )
                  (     0          0         -1      )       (  0.5000000 )

 cart.    s(10) = (  0.5000000  0.8660254  0.0000000 )    f =(  0.0000000 )
                  (  0.8660254 -0.5000000  0.0000000 )       ( -0.0000000 )
                  (  0.0000000  0.0000000 -1.0000000 )       (  0.9319989 )

[...]

 cryst.   s(11) = (    -1         -1          0      )
                  (     0          1          0      )
                  (     0          0         -1      )

 cart.    s(11) = ( -0.5000000 -0.8660254  0.0000000 )
                  ( -0.8660254  0.5000000  0.0000000 )
                  (  0.0000000  0.0000000 -1.0000000 )

      isym = 12     180 deg rotation - cryst. axis [1,1,0]

[...]

      isym = 13     inversion

[...]

      isym = 14     inv. 180 deg rotation - cart. axis [0,0,1]

[...]

      isym = 16     inv. 180 deg rotation - cart. axis [1,0,0]

[...]

      isym = 17     inv.  60 deg rotation - cryst. axis [0,0,1]

[...]

 cryst.   s(22) = (    -1         -1          0      )    f =(  0.0000000 )
                  (     0          1          0      )       ( -0.0000000 )
                  (     0          0          1      )       ( -0.5000000 )

 cart.    s(22) = ( -0.5000000 -0.8660254  0.0000000 )    f =(  0.0000000 )
                  ( -0.8660254  0.5000000  0.0000000 )       ( -0.0000000 )
                  (  0.0000000  0.0000000  1.0000000 )       ( -0.9319989 )

[...]

      isym = 24     inv. 180 deg rotation - cryst. axis [1,1,0]

 cryst.   s(24) = (     0         -1          0      )
                  (    -1          0          0      )
                  (     0          0          1      )

 cart.    s(24) = (  0.5000000 -0.8660254  0.0000000 )
                  ( -0.8660254 -0.5000000  0.0000000 )
                  (  0.0000000  0.0000000  1.0000000 )

   Cartesian axes

     site n.     atom                  positions (alat units)
         1           Zn  tau(   1) = (  -0.0000000   0.5773503   0.4659995  )
         2           Zn  tau(   2) = (   0.5000000   0.2886751   1.3979984  )

   Crystallographic axes

     site n.     atom                  positions (cryst. coord.)
         1           Zn  tau(   1) = (  0.3333333  0.6666667  0.2500000  )
         2           Zn  tau(   2) = (  0.6666667  0.3333333  0.7500000  )

     number of k points=   185  Gaussian smearing, width (Ry)=  0.0073
                       cart. coord. in units 2pi/alat
        k(    1) = (   0.0000000   0.0000000   0.0000000), wk =   0.0006859
        k(    2) = (   0.0000000   0.0000000   0.0596090), wk =   0.0013717
        k(    3) = (   0.0000000   0.0000000   0.1192181), wk =   0.0013717
        k(    4) = (   0.0000000   0.0000000   0.1788271), wk =   0.0013717
        k(    5) = (   0.0000000   0.0000000   0.2384361), wk =   0.0013717
        k(    6) = (   0.0000000   0.0641500   0.0000000), wk =   0.0041152
        k(    7) = (   0.0000000   0.0641500   0.0596090), wk =   0.0082305
        k(    8) = (   0.0000000   0.0641500   0.1192181), wk =   0.0082305
        k(    9) = (   0.0000000   0.0641500   0.1788271), wk =   0.0082305
        k(   10) = (   0.0000000   0.0641500   0.2384361), wk =   0.0082305
        k(   11) = (   0.0000000   0.1283001   0.0000000), wk =   0.0041152
        k(   12) = (   0.0000000   0.1283001   0.0596090), wk =   0.0082305
        k(   13) = (   0.0000000   0.1283001   0.1192181), wk =   0.0082305
        k(   14) = (   0.0000000   0.1283001   0.1788271), wk =   0.0082305
        k(   15) = (   0.0000000   0.1283001   0.2384361), wk =   0.0082305
        k(   16) = (   0.0000000   0.1924501   0.0000000), wk =   0.0041152
        k(   17) = (   0.0000000   0.1924501   0.0596090), wk =   0.0082305
        k(   18) = (   0.0000000   0.1924501   0.1192181), wk =   0.0082305
        k(   19) = (   0.0000000   0.1924501   0.1788271), wk =   0.0082305
        k(   20) = (   0.0000000   0.1924501   0.2384361), wk =   0.0082305
        k(   21) = (   0.0000000   0.2566001   0.0000000), wk =   0.0041152
        k(   22) = (   0.0000000   0.2566001   0.0596090), wk =   0.0082305
        k(   23) = (   0.0000000   0.2566001   0.1192181), wk =   0.0082305
        k(   24) = (   0.0000000   0.2566001   0.1788271), wk =   0.0082305
        k(   25) = (   0.0000000   0.2566001   0.2384361), wk =   0.0082305
        k(   26) = (   0.0000000   0.3207501   0.0000000), wk =   0.0041152
        k(   27) = (   0.0000000   0.3207501   0.0596090), wk =   0.0082305
        k(   28) = (   0.0000000   0.3207501   0.1192181), wk =   0.0082305
        k(   29) = (   0.0000000   0.3207501   0.1788271), wk =   0.0082305
        k(   30) = (   0.0000000   0.3207501   0.2384361), wk =   0.0082305
        k(   31) = (   0.0000000   0.3849002   0.0000000), wk =   0.0041152
        k(   32) = (   0.0000000   0.3849002   0.0596090), wk =   0.0082305
        k(   33) = (   0.0000000   0.3849002   0.1192181), wk =   0.0082305
        k(   34) = (   0.0000000   0.3849002   0.1788271), wk =   0.0082305
        k(   35) = (   0.0000000   0.3849002   0.2384361), wk =   0.0082305
        k(   36) = (   0.0000000   0.4490502   0.0000000), wk =   0.0041152
        k(   37) = (   0.0000000   0.4490502   0.0596090), wk =   0.0082305
        k(   38) = (   0.0000000   0.4490502   0.1192181), wk =   0.0082305
        k(   39) = (   0.0000000   0.4490502   0.1788271), wk =   0.0082305
        k(   40) = (   0.0000000   0.4490502   0.2384361), wk =   0.0082305
        k(   41) = (   0.0000000   0.5132002   0.0000000), wk =   0.0041152
        k(   42) = (   0.0000000   0.5132002   0.0596090), wk =   0.0082305
        k(   43) = (   0.0000000   0.5132002   0.1192181), wk =   0.0082305
        k(   44) = (   0.0000000   0.5132002   0.1788271), wk =   0.0082305
        k(   45) = (   0.0000000   0.5132002   0.2384361), wk =   0.0082305
        k(   46) = (   0.0000000  -0.5773503   0.0000000), wk =   0.0020576
        k(   47) = (   0.0000000  -0.5773503   0.0596090), wk =   0.0041152
        k(   48) = (   0.0000000  -0.5773503   0.1192181), wk =   0.0041152
        k(   49) = (   0.0000000  -0.5773503   0.1788271), wk =   0.0041152
        k(   50) = (   0.0000000  -0.5773503   0.2384361), wk =   0.0041152
        k(   51) = (   0.0555556   0.0962250   0.0000000), wk =   0.0041152
        k(   52) = (   0.0555556   0.0962250   0.0596090), wk =   0.0082305
        k(   53) = (   0.0555556   0.0962250   0.1192181), wk =   0.0082305
        k(   54) = (   0.0555556   0.0962250   0.1788271), wk =   0.0082305
        k(   55) = (   0.0555556   0.0962250   0.2384361), wk =   0.0082305
        k(   56) = (   0.0555556   0.1603751   0.0000000), wk =   0.0082305
        k(   57) = (   0.0555556   0.1603751   0.0596090), wk =   0.0164609
        k(   58) = (   0.0555556   0.1603751   0.1192181), wk =   0.0164609
        k(   59) = (   0.0555556   0.1603751   0.1788271), wk =   0.0164609
        k(   60) = (   0.0555556   0.1603751   0.2384361), wk =   0.0164609
[...]
        k(  171) = (   0.2777778   0.4811252   0.0000000), wk =   0.0041152
        k(  172) = (   0.2777778   0.4811252   0.0596090), wk =   0.0082305
        k(  173) = (   0.2777778   0.4811252   0.1192181), wk =   0.0082305
        k(  174) = (   0.2777778   0.4811252   0.1788271), wk =   0.0082305
        k(  175) = (   0.2777778   0.4811252   0.2384361), wk =   0.0082305
        k(  176) = (   0.2777778   0.5452753   0.0000000), wk =   0.0082305
        k(  177) = (   0.2777778   0.5452753   0.0596090), wk =   0.0164609
        k(  178) = (   0.2777778   0.5452753   0.1192181), wk =   0.0164609
        k(  179) = (   0.2777778   0.5452753   0.1788271), wk =   0.0164609
        k(  180) = (   0.2777778   0.5452753   0.2384361), wk =   0.0164609
        k(  181) = (   0.3333333   0.5773503   0.0000000), wk =   0.0013717
        k(  182) = (   0.3333333   0.5773503   0.0596090), wk =   0.0027435
        k(  183) = (   0.3333333   0.5773503   0.1192181), wk =   0.0027435
        k(  184) = (   0.3333333   0.5773503   0.1788271), wk =   0.0027435
        k(  185) = (   0.3333333   0.5773503   0.2384361), wk =   0.0027435

                       cryst. coord.
        k(    1) = (   0.0000000   0.0000000   0.0000000), wk =   0.0006859
        k(    2) = (   0.0000000   0.0000000   0.1111111), wk =   0.0013717
        k(    3) = (   0.0000000   0.0000000   0.2222222), wk =   0.0013717
        k(    4) = (   0.0000000   0.0000000   0.3333333), wk =   0.0013717
        k(    5) = (   0.0000000   0.0000000   0.4444444), wk =   0.0013717
        k(    6) = (   0.0000000   0.0555556   0.0000000), wk =   0.0041152
        k(    7) = (   0.0000000   0.0555556   0.1111111), wk =   0.0082305
        k(    8) = (   0.0000000   0.0555556   0.2222222), wk =   0.0082305
        k(    9) = (   0.0000000   0.0555556   0.3333333), wk =   0.0082305
        k(   10) = (   0.0000000   0.0555556   0.4444444), wk =   0.0082305
        k(   11) = (   0.0000000   0.1111111   0.0000000), wk =   0.0041152
        k(   12) = (   0.0000000   0.1111111   0.1111111), wk =   0.0082305
        k(   13) = (   0.0000000   0.1111111   0.2222222), wk =   0.0082305
        k(   14) = (   0.0000000   0.1111111   0.3333333), wk =   0.0082305
        k(   15) = (   0.0000000   0.1111111   0.4444444), wk =   0.0082305
        k(   16) = (   0.0000000   0.1666667   0.0000000), wk =   0.0041152
        k(   17) = (   0.0000000   0.1666667   0.1111111), wk =   0.0082305
        k(   18) = (   0.0000000   0.1666667   0.2222222), wk =   0.0082305
        k(   19) = (   0.0000000   0.1666667   0.3333333), wk =   0.0082305
        k(   20) = (   0.0000000   0.1666667   0.4444444), wk =   0.0082305
        k(   21) = (   0.0000000   0.2222222   0.0000000), wk =   0.0041152
        k(   22) = (   0.0000000   0.2222222   0.1111111), wk =   0.0082305
        k(   23) = (   0.0000000   0.2222222   0.2222222), wk =   0.0082305
        k(   24) = (   0.0000000   0.2222222   0.3333333), wk =   0.0082305
        k(   25) = (   0.0000000   0.2222222   0.4444444), wk =   0.0082305
        k(   26) = (   0.0000000   0.2777778   0.0000000), wk =   0.0041152
        k(   27) = (   0.0000000   0.2777778   0.1111111), wk =   0.0082305
        k(   28) = (   0.0000000   0.2777778   0.2222222), wk =   0.0082305
        k(   29) = (   0.0000000   0.2777778   0.3333333), wk =   0.0082305
        k(   30) = (   0.0000000   0.2777778   0.4444444), wk =   0.0082305
        k(   31) = (   0.0000000   0.3333333   0.0000000), wk =   0.0041152
        k(   32) = (   0.0000000   0.3333333   0.1111111), wk =   0.0082305
        k(   33) = (   0.0000000   0.3333333   0.2222222), wk =   0.0082305
        k(   34) = (   0.0000000   0.3333333   0.3333333), wk =   0.0082305
        k(   35) = (   0.0000000   0.3333333   0.4444444), wk =   0.0082305
        k(   36) = (   0.0000000   0.3888889   0.0000000), wk =   0.0041152
        k(   37) = (   0.0000000   0.3888889   0.1111111), wk =   0.0082305
        k(   38) = (   0.0000000   0.3888889   0.2222222), wk =   0.0082305
        k(   39) = (   0.0000000   0.3888889   0.3333333), wk =   0.0082305
        k(   40) = (   0.0000000   0.3888889   0.4444444), wk =   0.0082305
        k(   41) = (   0.0000000   0.4444444   0.0000000), wk =   0.0041152
        k(   42) = (   0.0000000   0.4444444   0.1111111), wk =   0.0082305
        k(   43) = (   0.0000000   0.4444444   0.2222222), wk =   0.0082305
        k(   44) = (   0.0000000   0.4444444   0.3333333), wk =   0.0082305
        k(   45) = (   0.0000000   0.4444444   0.4444444), wk =   0.0082305
        k(   46) = (   0.0000000  -0.5000000   0.0000000), wk =   0.0020576
        k(   47) = (   0.0000000  -0.5000000   0.1111111), wk =   0.0041152
        k(   48) = (   0.0000000  -0.5000000   0.2222222), wk =   0.0041152
        k(   49) = (   0.0000000  -0.5000000   0.3333333), wk =   0.0041152
        k(   50) = (   0.0000000  -0.5000000   0.4444444), wk =   0.0041152
        k(   51) = (   0.0555556   0.0555556   0.0000000), wk =   0.0041152
        k(   52) = (   0.0555556   0.0555556   0.1111111), wk =   0.0082305
        k(   53) = (   0.0555556   0.0555556   0.2222222), wk =   0.0082305
        k(   54) = (   0.0555556   0.0555556   0.3333333), wk =   0.0082305
        k(   55) = (   0.0555556   0.0555556   0.4444444), wk =   0.0082305
        k(   56) = (   0.0555556   0.1111111   0.0000000), wk =   0.0082305
        k(   57) = (   0.0555556   0.1111111   0.1111111), wk =   0.0164609
        k(   58) = (   0.0555556   0.1111111   0.2222222), wk =   0.0164609
        k(   59) = (   0.0555556   0.1111111   0.3333333), wk =   0.0164609
        k(   60) = (   0.0555556   0.1111111   0.4444444), wk =   0.0164609
[...]
        k(  171) = (   0.2777778   0.2777778   0.0000000), wk =   0.0041152
        k(  172) = (   0.2777778   0.2777778   0.1111111), wk =   0.0082305
        k(  173) = (   0.2777778   0.2777778   0.2222222), wk =   0.0082305
        k(  174) = (   0.2777778   0.2777778   0.3333333), wk =   0.0082305
        k(  175) = (   0.2777778   0.2777778   0.4444444), wk =   0.0082305
        k(  176) = (   0.2777778   0.3333333   0.0000000), wk =   0.0082305
        k(  177) = (   0.2777778   0.3333333   0.1111111), wk =   0.0164609
        k(  178) = (   0.2777778   0.3333333   0.2222222), wk =   0.0164609
        k(  179) = (   0.2777778   0.3333333   0.3333333), wk =   0.0164609
        k(  180) = (   0.2777778   0.3333333   0.4444444), wk =   0.0164609
        k(  181) = (   0.3333333   0.3333333   0.0000000), wk =   0.0013717
        k(  182) = (   0.3333333   0.3333333   0.1111111), wk =   0.0027435
        k(  183) = (   0.3333333   0.3333333   0.2222222), wk =   0.0027435
        k(  184) = (   0.3333333   0.3333333   0.3333333), wk =   0.0027435
        k(  185) = (   0.3333333   0.3333333   0.4444444), wk =   0.0027435

     Check: negative core charge=   -0.000003

     The initial density is read from file :
     ./out/Zn.save/charge-density

     Wavefunctions not found or not readable, recomputing them from scratch
     Starting wfcs are   18 randomized atomic wfcs
     Checking if some PAW data can be deallocated...

     Self-consistent Calculation

     iteration #  1     ecut=    70.00 Ry     beta= 0.70
     Davidson diagonalization with overlap

     c_bands:  1 eigenvalues not converged
     c_bands:  1 eigenvalues not converged
     c_bands:  1 eigenvalues not converged
     c_bands:  1 eigenvalues not converged
     ethr =  1.00E-05,  avg # of iterations = 10.4

     Threshold (ethr) on eigenvalues was too large:
     Diagonalizing with lowered threshold

     Davidson diagonalization with overlap

     ethr =  6.02E-09,  avg # of iterations =  3.1

     total energy              =    -487.44638126 Ry
     estimated scf accuracy    <       0.00000143 Ry

[...]

     total energy              =    -487.44638133 Ry
     estimated scf accuracy    <       0.00000013 Ry

     iteration #  4     ecut=    70.00 Ry     beta= 0.70
     Davidson diagonalization with overlap

     ethr =  5.36E-10,  avg # of iterations =  2.0

     End of self-consistent calculation

          k = 0.0000 0.0000 0.0000 (  1933 PWs)   bands (ev):

     1.0676   3.0925   3.8974   4.1573   4.1573   4.2125   4.2125   4.5855
     4.5855   4.8121   4.8121   7.9814   8.8866  25.8235  29.4377  30.0642

     occupation numbers
     1.0000   1.0000   1.0000   1.0000   1.0000   1.0000   1.0000   1.0000
     1.0000   1.0000   1.0000   1.0000   1.0000   0.0000   0.0000   0.0000

[...]

          k = 0.3333 0.5774 0.2384 (  1914 PWs)   bands (ev):

     3.8642   3.8642   3.9449   3.9980   4.1683   4.1683   4.3648   4.4041
     4.7991   4.7991  12.8108  12.8108  13.4133  14.1284  14.4078  14.4078

     occupation numbers
     1.0000   1.0000   1.0000   1.0000   1.0000   1.0000   1.0000   1.0000
     1.0000   1.0000   0.0000   0.0000   0.0000   0.0000   0.0000   0.0000

     the Fermi energy is    12.0460 ev

!    total energy              =    -487.44638135 Ry
     total all-electron energy =     -7184.240427 Ry
     estimated scf accuracy    <          8.9E-10 Ry
     smearing contrib. (-TS)   =      -0.00012286 Ry
     internal energy E=F+TS    =    -487.44625850 Ry

     The total energy is F=E-TS. E is the sum of the following terms:
     one-electron contribution =    -111.39090353 Ry
     hartree contribution      =      89.55130437 Ry
     xc contribution           =     -94.40363396 Ry
     ewald contribution        =    -180.32404734 Ry
     one-center paw contrib.   =    -190.87897803 Ry
      -> PAW hartree energy AE =     122.77868550 Ry
      -> PAW hartree energy PS =    -122.15806588 Ry
      -> PAW xc energy AE      =    -143.12932938 Ry
      -> PAW xc energy PS      =      47.06922075 Ry
      -> total E_H with PAW    =      90.17192398 Ry
      -> total E_XC with PAW   =    -190.46374259 Ry

     convergence has been achieved in   4 iterations

     Writing all to output data dir ./out/Zn.save/

     General routines

     Parallel routines

     PAW routines

   This run was terminated on:   9:19:33  16Feb2024

   JOB DONE.