     Program PWSCF v.7.2 starts on 16Feb2024 at  9:18:18

     Reading input from scf.k-10.in

     Current dimensions of program PWSCF are:
     Max number of different atomic species (ntypx) = 10
     Max number of k-points (npk) =  40000
     Max angular momentum in pseudopotentials (lmaxx) =  4
     file Zn.pbe-dnl-kjpaw_psl.1.0.0.UPF: wavefunction(s)  4S 3D renormalized
     Message from routine setup:
     using ibrav=0 with symmetry is DISCOURAGED, use correct ibrav instead

     R & G space division:  proc/nbgrp/npool/nimage =      10
     Subspace diagonalization in iterative solution of the eigenvalue problem:
     a serial algorithm will be used

     Using Slab Decomposition

     bravais-lattice index     =            0
     lattice parameter (alat)  =       4.9404  a.u.
     unit-cell volume          =     194.6564 (a.u.)^3
     number of atoms/cell      =            2
     number of atomic types    =            1
     number of electrons       =        24.00
     number of Kohn-Sham states=           16
     kinetic-energy cutoff     =      70.0000  Ry
     charge density cutoff     =     280.0000  Ry
     scf convergence threshold =      4.0E-08
     mixing beta               =       0.7000
     number of iterations used =            8  plain     mixing
     Exchange-correlation= SLA  PW   PBX  PBC
                           (   1   4   3   4   0   0   0)

     celldm(1)=   4.940424  celldm(2)=   0.000000  celldm(3)=   0.000000
     celldm(4)=   0.000000  celldm(5)=   0.000000  celldm(6)=   0.000000

     crystal axes: (cart. coord. in units of alat)
               a(1) = (   1.000000   0.000000   0.000000 )
               a(2) = (  -0.500000   0.866025   0.000000 )
               a(3) = (   0.000000   0.000000   1.863998 )

     reciprocal axes: (cart. coord. in units 2 pi/alat)
               b(1) = (  1.000000  0.577350 -0.000000 )
               b(2) = (  0.000000  1.154701  0.000000 )
               b(3) = (  0.000000 -0.000000  0.536481 )

     PseudoPot. # 1 for Zn read from file:
     /home/abdul/git_repo/ZnS_Cu-Vacancy/pseudo/QE/Zn.pbe-dnl-kjpaw_psl.1.0.0.UPF
     MD5 check sum: c608214d9520ac179f507641260889e3
     Pseudo is Projector augmented-wave + core cor, Zval = 12.0
     Generated using &quot;atomic&quot; code by A. Dal Corso  v.6.2.2
     Shape of augmentation charge: PSQ
     Using radial grid of 1201 points,  6 beta functions with:
                l(1) =   0
                l(2) =   0
                l(3) =   1
                l(4) =   1
                l(5) =   2
                l(6) =   2
     Q(r) pseudized with 0 coefficients

     atomic species   valence    mass     pseudopotential
        Zn            12.00    65.38000     Zn( 1.00)

     24 Sym. Ops., with inversion, found (12 have fractional translation)

                                    s                        frac. trans.

      isym =  1     identity

 cryst.   s( 1) = (     1          0          0      )
                  (     0          1          0      )
                  (     0          0          1      )

 cart.    s( 1) = (  1.0000000  0.0000000  0.0000000 )
                  (  0.0000000  1.0000000  0.0000000 )
                  (  0.0000000  0.0000000  1.0000000 )

      isym =  2     180 deg rotation - cart. axis [0,0,1]

 cryst.   s( 2) = (    -1          0          0      )    f =(  0.0000000 )
                  (     0         -1          0      )       (  0.0000000 )
                  (     0          0          1      )       ( -0.5000000 )

 cart.    s( 2) = ( -1.0000000  0.0000000  0.0000000 )    f =(  0.0000000 )
                  (  0.0000000 -1.0000000  0.0000000 )       (  0.0000000 )
                  (  0.0000000  0.0000000  1.0000000 )       ( -0.9319989 )

[...]

      isym =  4     180 deg rotation - cart. axis [1,0,0]

[...]

      isym =  5      60 deg rotation - cryst. axis [0,0,1]

[...]

 cryst.   s( 8) = (    -1         -1          0      )
                  (     1          0          0      )
                  (     0          0          1      )

 cart.    s( 8) = ( -0.5000000  0.8660254  0.0000000 )
                  ( -0.8660254 -0.5000000  0.0000000 )
                  (  0.0000000  0.0000000  1.0000000 )

[...]

 cryst.   s( 9) = (     0         -1          0      )    f =(  0.0000000 )
                  (    -1          0          0      )       (  0.0000000 )
                  (     0          0         -1      )       (  0.5000000 )

 cart.    s( 9) = (  0.5000000 -0.8660254  0.0000000 )    f =(  0.0000000 )
                  ( -0.8660254 -0.5000000  0.0000000 )       (  0.0000000 )
                  (  0.0000000  0.0000000 -1.0000000 )       (  0.9319989 )

[...]

 cryst.   s(10) = (     1          1          0      )    f =(  0.0000000 )
                  (     0         -1          0      )       ( -0.0000000 )
                  (     0          0         -1      )       (  0.5000000 )

 cart.    s(10) = (  0.5000000  0.8660254  0.0000000 )    f =(  0.0000000 )
                  (  0.8660254 -0.5000000  0.0000000 )       ( -0.0000000 )
                  (  0.0000000  0.0000000 -1.0000000 )       (  0.9319989 )

[...]

 cryst.   s(11) = (    -1         -1          0      )
                  (     0          1          0      )
                  (     0          0         -1      )

 cart.    s(11) = ( -0.5000000 -0.8660254  0.0000000 )
                  ( -0.8660254  0.5000000  0.0000000 )
                  (  0.0000000  0.0000000 -1.0000000 )

      isym = 12     180 deg rotation - cryst. axis [1,1,0]

[...]

      isym = 13     inversion

[...]

      isym = 14     inv. 180 deg rotation - cart. axis [0,0,1]

[...]

      isym = 16     inv. 180 deg rotation - cart. axis [1,0,0]

[...]

      isym = 17     inv.  60 deg rotation - cryst. axis [0,0,1]

[...]

 cryst.   s(22) = (    -1         -1          0      )    f =(  0.0000000 )
                  (     0          1          0      )       ( -0.0000000 )
                  (     0          0          1      )       ( -0.5000000 )

 cart.    s(22) = ( -0.5000000 -0.8660254  0.0000000 )    f =(  0.0000000 )
                  ( -0.8660254  0.5000000  0.0000000 )       ( -0.0000000 )
                  (  0.0000000  0.0000000  1.0000000 )       ( -0.9319989 )

[...]

      isym = 24     inv. 180 deg rotation - cryst. axis [1,1,0]

 cryst.   s(24) = (     0         -1          0      )
                  (    -1          0          0      )
                  (     0          0          1      )

 cart.    s(24) = (  0.5000000 -0.8660254  0.0000000 )
                  ( -0.8660254 -0.5000000  0.0000000 )
                  (  0.0000000  0.0000000  1.0000000 )

   Cartesian axes

     site n.     atom                  positions (alat units)
         1           Zn  tau(   1) = (  -0.0000000   0.5773503   0.4659995  )
         2           Zn  tau(   2) = (   0.5000000   0.2886751   1.3979984  )

   Crystallographic axes

     site n.     atom                  positions (cryst. coord.)
         1           Zn  tau(   1) = (  0.3333333  0.6666667  0.2500000  )
         2           Zn  tau(   2) = (  0.6666667  0.3333333  0.7500000  )

     number of k points=    42  Gaussian smearing, width (Ry)=  0.0073
                       cart. coord. in units 2pi/alat
        k(    1) = (   0.0000000   0.0000000   0.0000000), wk =   0.0040000
        k(    2) = (   0.0000000   0.0000000   0.1072963), wk =   0.0080000
        k(    3) = (   0.0000000   0.0000000   0.2145925), wk =   0.0080000
        k(    4) = (   0.0000000   0.1154701   0.0000000), wk =   0.0240000
        k(    5) = (   0.0000000   0.1154701   0.1072963), wk =   0.0480000
        k(    6) = (   0.0000000   0.1154701   0.2145925), wk =   0.0480000
        k(    7) = (   0.0000000   0.2309401   0.0000000), wk =   0.0240000
        k(    8) = (   0.0000000   0.2309401   0.1072963), wk =   0.0480000
        k(    9) = (   0.0000000   0.2309401   0.2145925), wk =   0.0480000
        k(   10) = (   0.0000000   0.3464102   0.0000000), wk =   0.0240000
        k(   11) = (   0.0000000   0.3464102   0.1072963), wk =   0.0480000
        k(   12) = (   0.0000000   0.3464102   0.2145925), wk =   0.0480000
        k(   13) = (   0.0000000   0.4618802   0.0000000), wk =   0.0240000
        k(   14) = (   0.0000000   0.4618802   0.1072963), wk =   0.0480000
        k(   15) = (   0.0000000   0.4618802   0.2145925), wk =   0.0480000
        k(   16) = (   0.0000000  -0.5773503   0.0000000), wk =   0.0120000
        k(   17) = (   0.0000000  -0.5773503   0.1072963), wk =   0.0240000
        k(   18) = (   0.0000000  -0.5773503   0.2145925), wk =   0.0240000
        k(   19) = (   0.1000000   0.1732051   0.0000000), wk =   0.0240000
        k(   20) = (   0.1000000   0.1732051   0.1072963), wk =   0.0480000
        k(   21) = (   0.1000000   0.1732051   0.2145925), wk =   0.0480000
        k(   22) = (   0.1000000   0.2886751   0.0000000), wk =   0.0480000
        k(   23) = (   0.1000000   0.2886751   0.1072963), wk =   0.0960000
        k(   24) = (   0.1000000   0.2886751   0.2145925), wk =   0.0960000
        k(   25) = (   0.1000000   0.4041452   0.0000000), wk =   0.0480000
        k(   26) = (   0.1000000   0.4041452   0.1072963), wk =   0.0960000
        k(   27) = (   0.1000000   0.4041452   0.2145925), wk =   0.0960000
        k(   28) = (   0.1000000   0.5196152   0.0000000), wk =   0.0480000
        k(   29) = (   0.1000000   0.5196152   0.1072963), wk =   0.0960000
        k(   30) = (   0.1000000   0.5196152   0.2145925), wk =   0.0960000
        k(   31) = (   0.2000000   0.3464102   0.0000000), wk =   0.0240000
        k(   32) = (   0.2000000   0.3464102   0.1072963), wk =   0.0480000
        k(   33) = (   0.2000000   0.3464102   0.2145925), wk =   0.0480000
        k(   34) = (   0.2000000   0.4618802   0.0000000), wk =   0.0480000
        k(   35) = (   0.2000000   0.4618802   0.1072963), wk =   0.0960000
        k(   36) = (   0.2000000   0.4618802   0.2145925), wk =   0.0960000
        k(   37) = (   0.2000000   0.5773503   0.0000000), wk =   0.0240000
        k(   38) = (   0.2000000   0.5773503   0.1072963), wk =   0.0480000
        k(   39) = (   0.2000000   0.5773503   0.2145925), wk =   0.0480000
        k(   40) = (   0.3000000   0.5196152   0.0000000), wk =   0.0240000
        k(   41) = (   0.3000000   0.5196152   0.1072963), wk =   0.0480000
        k(   42) = (   0.3000000   0.5196152   0.2145925), wk =   0.0480000

                       cryst. coord.
        k(    1) = (   0.0000000   0.0000000   0.0000000), wk =   0.0040000
        k(    2) = (   0.0000000   0.0000000   0.2000000), wk =   0.0080000
        k(    3) = (   0.0000000   0.0000000   0.4000000), wk =   0.0080000
        k(    4) = (   0.0000000   0.1000000   0.0000000), wk =   0.0240000
        k(    5) = (   0.0000000   0.1000000   0.2000000), wk =   0.0480000
        k(    6) = (   0.0000000   0.1000000   0.4000000), wk =   0.0480000
        k(    7) = (   0.0000000   0.2000000   0.0000000), wk =   0.0240000
        k(    8) = (   0.0000000   0.2000000   0.2000000), wk =   0.0480000
        k(    9) = (   0.0000000   0.2000000   0.4000000), wk =   0.0480000
        k(   10) = (   0.0000000   0.3000000   0.0000000), wk =   0.0240000
        k(   11) = (   0.0000000   0.3000000   0.2000000), wk =   0.0480000
        k(   12) = (   0.0000000   0.3000000   0.4000000), wk =   0.0480000
        k(   13) = (   0.0000000   0.4000000   0.0000000), wk =   0.0240000
        k(   14) = (   0.0000000   0.4000000   0.2000000), wk =   0.0480000
        k(   15) = (   0.0000000   0.4000000   0.4000000), wk =   0.0480000
        k(   16) = (   0.0000000  -0.5000000   0.0000000), wk =   0.0120000
        k(   17) = (   0.0000000  -0.5000000   0.2000000), wk =   0.0240000
        k(   18) = (   0.0000000  -0.5000000   0.4000000), wk =   0.0240000
        k(   19) = (   0.1000000   0.1000000   0.0000000), wk =   0.0240000
        k(   20) = (   0.1000000   0.1000000   0.2000000), wk =   0.0480000
        k(   21) = (   0.1000000   0.1000000   0.4000000), wk =   0.0480000
        k(   22) = (   0.1000000   0.2000000   0.0000000), wk =   0.0480000
        k(   23) = (   0.1000000   0.2000000   0.2000000), wk =   0.0960000
        k(   24) = (   0.1000000   0.2000000   0.4000000), wk =   0.0960000
        k(   25) = (   0.1000000   0.3000000   0.0000000), wk =   0.0480000
        k(   26) = (   0.1000000   0.3000000   0.2000000), wk =   0.0960000
        k(   27) = (   0.1000000   0.3000000   0.4000000), wk =   0.0960000
        k(   28) = (   0.1000000   0.4000000   0.0000000), wk =   0.0480000
        k(   29) = (   0.1000000   0.4000000   0.2000000), wk =   0.0960000
        k(   30) = (   0.1000000   0.4000000   0.4000000), wk =   0.0960000
        k(   31) = (   0.2000000   0.2000000   0.0000000), wk =   0.0240000
        k(   32) = (   0.2000000   0.2000000   0.2000000), wk =   0.0480000
        k(   33) = (   0.2000000   0.2000000   0.4000000), wk =   0.0480000
        k(   34) = (   0.2000000   0.3000000   0.0000000), wk =   0.0480000
        k(   35) = (   0.2000000   0.3000000   0.2000000), wk =   0.0960000
        k(   36) = (   0.2000000   0.3000000   0.4000000), wk =   0.0960000
        k(   37) = (   0.2000000   0.4000000   0.0000000), wk =   0.0240000
        k(   38) = (   0.2000000   0.4000000   0.2000000), wk =   0.0480000
        k(   39) = (   0.2000000   0.4000000   0.4000000), wk =   0.0480000
        k(   40) = (   0.3000000   0.3000000   0.0000000), wk =   0.0240000
        k(   41) = (   0.3000000   0.3000000   0.2000000), wk =   0.0480000
        k(   42) = (   0.3000000   0.3000000   0.4000000), wk =   0.0480000

     Check: negative core charge=   -0.000003
     Cannot read rho : file not found

     Initial potential from superposition of free atoms

     starting charge      23.9926, renormalised to      24.0000
     Message from routine qexsd_readschema :
     xml data file ./out/Zn.save/data-file-schema.xml not found
     Cannot read wfcs: file not found
     Starting wfcs are   18 randomized atomic wfcs
     Checking if some PAW data can be deallocated...

     Self-consistent Calculation

     iteration #  1     ecut=    70.00 Ry     beta= 0.70
     Davidson diagonalization with overlap

     c_bands:  1 eigenvalues not converged
     ethr =  1.00E-05,  avg # of iterations = 10.7

     total energy              =    -487.44691881 Ry
     estimated scf accuracy    <       0.00422538 Ry

[...]

     ethr =  1.76E-05,  avg # of iterations =  2.0

[...]

     total energy              =    -487.44738279 Ry
     estimated scf accuracy    <       0.00000030 Ry

     iteration #  7     ecut=    70.00 Ry     beta= 0.70
     Davidson diagonalization with overlap

     ethr =  1.25E-09,  avg # of iterations =  2.0

     End of self-consistent calculation

          k = 0.0000 0.0000 0.0000 (  1933 PWs)   bands (ev):

     1.0686   3.0944   3.8974   4.1632   4.1632   4.2184   4.2184   4.5869
     4.5869   4.8136   4.8136   7.9795   8.8880  25.8237  30.0639  30.0646

     occupation numbers
     1.0000   1.0000   1.0000   1.0000   1.0000   1.0000   1.0000   1.0000
     1.0000   1.0000   1.0000   1.0000   1.0000   0.0000   0.0000   0.0000

[...]

          k = 0.3000 0.5196 0.2146 (  1917 PWs)   bands (ev):

     3.7898   3.8379   3.9576   4.0037   4.1204   4.2315   4.3974   4.4556
     4.7780   4.8350  11.0478  12.1724  14.2187  14.2796  15.5089  15.5541

     occupation numbers
     1.0000   1.0000   1.0000   1.0000   1.0000   1.0000   1.0000   1.0000
     1.0000   1.0000   1.0000   0.0000   0.0000   0.0000   0.0000   0.0000

     the Fermi energy is    11.7282 ev

!    total energy              =    -487.44738286 Ry
     total all-electron energy =     -7184.241428 Ry
     estimated scf accuracy    <          3.0E-10 Ry
     smearing contrib. (-TS)   =      -0.00011031 Ry
     internal energy E=F+TS    =    -487.44727255 Ry

     The total energy is F=E-TS. E is the sum of the following terms:
     one-electron contribution =    -111.39593824 Ry
     hartree contribution      =      89.55594879 Ry
     xc contribution           =     -94.40402566 Ry
     ewald contribution        =    -180.32404734 Ry
     one-center paw contrib.   =    -190.87921009 Ry
      -> PAW hartree energy AE =     122.78658463 Ry
      -> PAW hartree energy PS =    -122.16607396 Ry
      -> PAW xc energy AE      =    -143.12992359 Ry
      -> PAW xc energy PS      =      47.06980788 Ry
      -> total E_H with PAW    =      90.17645946 Ry
      -> total E_XC with PAW   =    -190.46414137 Ry

     convergence has been achieved in   7 iterations

     Writing all to output data dir ./out/Zn.save/

     General routines

     Parallel routines

     PAW routines

   This run was terminated on:   9:18:26  16Feb2024

   JOB DONE.