     Program PWSCF v.7.2 starts on 16Feb2024 at  9:18:27

     Reading input from scf.k-12.in

     Current dimensions of program PWSCF are:
     Max number of different atomic species (ntypx) = 10
     Max number of k-points (npk) =  40000
     Max angular momentum in pseudopotentials (lmaxx) =  4
     file Zn.pbe-dnl-kjpaw_psl.1.0.0.UPF: wavefunction(s)  4S 3D renormalized
     Message from routine setup:
     using ibrav=0 with symmetry is DISCOURAGED, use correct ibrav instead

     R & G space division:  proc/nbgrp/npool/nimage =      10
     Subspace diagonalization in iterative solution of the eigenvalue problem:
     a serial algorithm will be used

     Using Slab Decomposition

     bravais-lattice index     =            0
     lattice parameter (alat)  =       4.9404  a.u.
     unit-cell volume          =     194.6564 (a.u.)^3
     number of atoms/cell      =            2
     number of atomic types    =            1
     number of electrons       =        24.00
     number of Kohn-Sham states=           16
     kinetic-energy cutoff     =      70.0000  Ry
     charge density cutoff     =     280.0000  Ry
     scf convergence threshold =      4.0E-08
     mixing beta               =       0.7000
     number of iterations used =            8  plain     mixing
     Exchange-correlation= SLA  PW   PBX  PBC
                           (   1   4   3   4   0   0   0)

     celldm(1)=   4.940424  celldm(2)=   0.000000  celldm(3)=   0.000000
     celldm(4)=   0.000000  celldm(5)=   0.000000  celldm(6)=   0.000000

     crystal axes: (cart. coord. in units of alat)
               a(1) = (   1.000000   0.000000   0.000000 )
               a(2) = (  -0.500000   0.866025   0.000000 )
               a(3) = (   0.000000   0.000000   1.863998 )

     reciprocal axes: (cart. coord. in units 2 pi/alat)
               b(1) = (  1.000000  0.577350 -0.000000 )
               b(2) = (  0.000000  1.154701  0.000000 )
               b(3) = (  0.000000 -0.000000  0.536481 )

     PseudoPot. # 1 for Zn read from file:
     /home/abdul/git_repo/ZnS_Cu-Vacancy/pseudo/QE/Zn.pbe-dnl-kjpaw_psl.1.0.0.UPF
     MD5 check sum: c608214d9520ac179f507641260889e3
     Pseudo is Projector augmented-wave + core cor, Zval = 12.0
     Generated using &quot;atomic&quot; code by A. Dal Corso  v.6.2.2
     Shape of augmentation charge: PSQ
     Using radial grid of 1201 points,  6 beta functions with:
                l(1) =   0
                l(2) =   0
                l(3) =   1
                l(4) =   1
                l(5) =   2
                l(6) =   2
     Q(r) pseudized with 0 coefficients

     atomic species   valence    mass     pseudopotential
        Zn            12.00    65.38000     Zn( 1.00)

     24 Sym. Ops., with inversion, found (12 have fractional translation)

                                    s                        frac. trans.

      isym =  1     identity

 cryst.   s( 1) = (     1          0          0      )
                  (     0          1          0      )
                  (     0          0          1      )

 cart.    s( 1) = (  1.0000000  0.0000000  0.0000000 )
                  (  0.0000000  1.0000000  0.0000000 )
                  (  0.0000000  0.0000000  1.0000000 )

      isym =  2     180 deg rotation - cart. axis [0,0,1]

 cryst.   s( 2) = (    -1          0          0      )    f =(  0.0000000 )
                  (     0         -1          0      )       (  0.0000000 )
                  (     0          0          1      )       ( -0.5000000 )

 cart.    s( 2) = ( -1.0000000  0.0000000  0.0000000 )    f =(  0.0000000 )
                  (  0.0000000 -1.0000000  0.0000000 )       (  0.0000000 )
                  (  0.0000000  0.0000000  1.0000000 )       ( -0.9319989 )

[...]

      isym =  4     180 deg rotation - cart. axis [1,0,0]

[...]

      isym =  5      60 deg rotation - cryst. axis [0,0,1]

[...]

 cryst.   s( 8) = (    -1         -1          0      )
                  (     1          0          0      )
                  (     0          0          1      )

 cart.    s( 8) = ( -0.5000000  0.8660254  0.0000000 )
                  ( -0.8660254 -0.5000000  0.0000000 )
                  (  0.0000000  0.0000000  1.0000000 )

[...]

 cryst.   s( 9) = (     0         -1          0      )    f =(  0.0000000 )
                  (    -1          0          0      )       (  0.0000000 )
                  (     0          0         -1      )       (  0.5000000 )

 cart.    s( 9) = (  0.5000000 -0.8660254  0.0000000 )    f =(  0.0000000 )
                  ( -0.8660254 -0.5000000  0.0000000 )       (  0.0000000 )
                  (  0.0000000  0.0000000 -1.0000000 )       (  0.9319989 )

[...]

 cryst.   s(10) = (     1          1          0      )    f =(  0.0000000 )
                  (     0         -1          0      )       ( -0.0000000 )
                  (     0          0         -1      )       (  0.5000000 )

 cart.    s(10) = (  0.5000000  0.8660254  0.0000000 )    f =(  0.0000000 )
                  (  0.8660254 -0.5000000  0.0000000 )       ( -0.0000000 )
                  (  0.0000000  0.0000000 -1.0000000 )       (  0.9319989 )

[...]

 cryst.   s(11) = (    -1         -1          0      )
                  (     0          1          0      )
                  (     0          0         -1      )

 cart.    s(11) = ( -0.5000000 -0.8660254  0.0000000 )
                  ( -0.8660254  0.5000000  0.0000000 )
                  (  0.0000000  0.0000000 -1.0000000 )

      isym = 12     180 deg rotation - cryst. axis [1,1,0]

[...]

      isym = 13     inversion

[...]

      isym = 14     inv. 180 deg rotation - cart. axis [0,0,1]

[...]

      isym = 16     inv. 180 deg rotation - cart. axis [1,0,0]

[...]

      isym = 17     inv.  60 deg rotation - cryst. axis [0,0,1]

[...]

 cryst.   s(22) = (    -1         -1          0      )    f =(  0.0000000 )
                  (     0          1          0      )       ( -0.0000000 )
                  (     0          0          1      )       ( -0.5000000 )

 cart.    s(22) = ( -0.5000000 -0.8660254  0.0000000 )    f =(  0.0000000 )
                  ( -0.8660254  0.5000000  0.0000000 )       ( -0.0000000 )
                  (  0.0000000  0.0000000  1.0000000 )       ( -0.9319989 )

[...]

      isym = 24     inv. 180 deg rotation - cryst. axis [1,1,0]

 cryst.   s(24) = (     0         -1          0      )
                  (    -1          0          0      )
                  (     0          0          1      )

 cart.    s(24) = (  0.5000000 -0.8660254  0.0000000 )
                  ( -0.8660254 -0.5000000  0.0000000 )
                  (  0.0000000  0.0000000  1.0000000 )

   Cartesian axes

     site n.     atom                  positions (alat units)
         1           Zn  tau(   1) = (  -0.0000000   0.5773503   0.4659995  )
         2           Zn  tau(   2) = (   0.5000000   0.2886751   1.3979984  )

   Crystallographic axes

     site n.     atom                  positions (cryst. coord.)
         1           Zn  tau(   1) = (  0.3333333  0.6666667  0.2500000  )
         2           Zn  tau(   2) = (  0.6666667  0.3333333  0.7500000  )

     number of k points=    76  Gaussian smearing, width (Ry)=  0.0073
                       cart. coord. in units 2pi/alat
        k(    1) = (   0.0000000   0.0000000   0.0000000), wk =   0.0023148
        k(    2) = (   0.0000000   0.0000000   0.0894136), wk =   0.0046296
        k(    3) = (   0.0000000   0.0000000   0.1788271), wk =   0.0046296
        k(    4) = (   0.0000000   0.0000000  -0.2682407), wk =   0.0023148
        k(    5) = (   0.0000000   0.0962250   0.0000000), wk =   0.0138889
        k(    6) = (   0.0000000   0.0962250   0.0894136), wk =   0.0277778
        k(    7) = (   0.0000000   0.0962250   0.1788271), wk =   0.0277778
        k(    8) = (   0.0000000   0.0962250  -0.2682407), wk =   0.0138889
        k(    9) = (   0.0000000   0.1924501   0.0000000), wk =   0.0138889
        k(   10) = (   0.0000000   0.1924501   0.0894136), wk =   0.0277778
        k(   11) = (   0.0000000   0.1924501   0.1788271), wk =   0.0277778
        k(   12) = (   0.0000000   0.1924501  -0.2682407), wk =   0.0138889
        k(   13) = (   0.0000000   0.2886751   0.0000000), wk =   0.0138889
        k(   14) = (   0.0000000   0.2886751   0.0894136), wk =   0.0277778
        k(   15) = (   0.0000000   0.2886751   0.1788271), wk =   0.0277778
        k(   16) = (   0.0000000   0.2886751  -0.2682407), wk =   0.0138889
        k(   17) = (   0.0000000   0.3849002   0.0000000), wk =   0.0138889
        k(   18) = (   0.0000000   0.3849002   0.0894136), wk =   0.0277778
        k(   19) = (   0.0000000   0.3849002   0.1788271), wk =   0.0277778
        k(   20) = (   0.0000000   0.3849002  -0.2682407), wk =   0.0138889
        k(   21) = (   0.0000000   0.4811252   0.0000000), wk =   0.0138889
        k(   22) = (   0.0000000   0.4811252   0.0894136), wk =   0.0277778
        k(   23) = (   0.0000000   0.4811252   0.1788271), wk =   0.0277778
        k(   24) = (   0.0000000   0.4811252  -0.2682407), wk =   0.0138889
        k(   25) = (   0.0000000  -0.5773503   0.0000000), wk =   0.0069444
        k(   26) = (   0.0000000  -0.5773503   0.0894136), wk =   0.0138889
        k(   27) = (   0.0000000  -0.5773503   0.1788271), wk =   0.0138889
        k(   28) = (   0.0000000  -0.5773503  -0.2682407), wk =   0.0069444
        k(   29) = (   0.0833333   0.1443376   0.0000000), wk =   0.0138889
        k(   30) = (   0.0833333   0.1443376   0.0894136), wk =   0.0277778
        k(   31) = (   0.0833333   0.1443376   0.1788271), wk =   0.0277778
        k(   32) = (   0.0833333   0.1443376  -0.2682407), wk =   0.0138889
        k(   33) = (   0.0833333   0.2405626   0.0000000), wk =   0.0277778
        k(   34) = (   0.0833333   0.2405626   0.0894136), wk =   0.0555556
        k(   35) = (   0.0833333   0.2405626   0.1788271), wk =   0.0555556
        k(   36) = (   0.0833333   0.2405626  -0.2682407), wk =   0.0277778
        k(   37) = (   0.0833333   0.3367877   0.0000000), wk =   0.0277778
        k(   38) = (   0.0833333   0.3367877   0.0894136), wk =   0.0555556
        k(   39) = (   0.0833333   0.3367877   0.1788271), wk =   0.0555556
        k(   40) = (   0.0833333   0.3367877  -0.2682407), wk =   0.0277778
        k(   41) = (   0.0833333   0.4330127   0.0000000), wk =   0.0277778
        k(   42) = (   0.0833333   0.4330127   0.0894136), wk =   0.0555556
        k(   43) = (   0.0833333   0.4330127   0.1788271), wk =   0.0555556
        k(   44) = (   0.0833333   0.4330127  -0.2682407), wk =   0.0277778
        k(   45) = (   0.0833333   0.5292377   0.0000000), wk =   0.0277778
        k(   46) = (   0.0833333   0.5292377   0.0894136), wk =   0.0555556
        k(   47) = (   0.0833333   0.5292377   0.1788271), wk =   0.0555556
        k(   48) = (   0.0833333   0.5292377  -0.2682407), wk =   0.0277778
        k(   49) = (   0.1666667   0.2886751   0.0000000), wk =   0.0138889
        k(   50) = (   0.1666667   0.2886751   0.0894136), wk =   0.0277778
        k(   51) = (   0.1666667   0.2886751   0.1788271), wk =   0.0277778
        k(   52) = (   0.1666667   0.2886751  -0.2682407), wk =   0.0138889
        k(   53) = (   0.1666667   0.3849002   0.0000000), wk =   0.0277778
        k(   54) = (   0.1666667   0.3849002   0.0894136), wk =   0.0555556
        k(   55) = (   0.1666667   0.3849002   0.1788271), wk =   0.0555556
        k(   56) = (   0.1666667   0.3849002  -0.2682407), wk =   0.0277778
        k(   57) = (   0.1666667   0.4811252   0.0000000), wk =   0.0277778
        k(   58) = (   0.1666667   0.4811252   0.0894136), wk =   0.0555556
        k(   59) = (   0.1666667   0.4811252   0.1788271), wk =   0.0555556
        k(   60) = (   0.1666667   0.4811252  -0.2682407), wk =   0.0277778
        k(   61) = (   0.1666667   0.5773503   0.0000000), wk =   0.0138889
        k(   62) = (   0.1666667   0.5773503   0.0894136), wk =   0.0277778
        k(   63) = (   0.1666667   0.5773503   0.1788271), wk =   0.0277778
        k(   64) = (   0.1666667   0.5773503  -0.2682407), wk =   0.0138889
        k(   65) = (   0.2500000   0.4330127   0.0000000), wk =   0.0138889
        k(   66) = (   0.2500000   0.4330127   0.0894136), wk =   0.0277778
        k(   67) = (   0.2500000   0.4330127   0.1788271), wk =   0.0277778
        k(   68) = (   0.2500000   0.4330127  -0.2682407), wk =   0.0138889
        k(   69) = (   0.2500000   0.5292377   0.0000000), wk =   0.0277778
        k(   70) = (   0.2500000   0.5292377   0.0894136), wk =   0.0555556
        k(   71) = (   0.2500000   0.5292377   0.1788271), wk =   0.0555556
        k(   72) = (   0.2500000   0.5292377  -0.2682407), wk =   0.0277778
        k(   73) = (   0.3333333   0.5773503   0.0000000), wk =   0.0046296
        k(   74) = (   0.3333333   0.5773503   0.0894136), wk =   0.0092593
        k(   75) = (   0.3333333   0.5773503   0.1788271), wk =   0.0092593
        k(   76) = (   0.3333333   0.5773503  -0.2682407), wk =   0.0046296

                       cryst. coord.
        k(    1) = (   0.0000000   0.0000000   0.0000000), wk =   0.0023148
        k(    2) = (   0.0000000   0.0000000   0.1666667), wk =   0.0046296
        k(    3) = (   0.0000000   0.0000000   0.3333333), wk =   0.0046296
        k(    4) = (   0.0000000   0.0000000  -0.5000000), wk =   0.0023148
        k(    5) = (   0.0000000   0.0833333   0.0000000), wk =   0.0138889
        k(    6) = (   0.0000000   0.0833333   0.1666667), wk =   0.0277778
        k(    7) = (   0.0000000   0.0833333   0.3333333), wk =   0.0277778
        k(    8) = (   0.0000000   0.0833333  -0.5000000), wk =   0.0138889
        k(    9) = (   0.0000000   0.1666667   0.0000000), wk =   0.0138889
        k(   10) = (   0.0000000   0.1666667   0.1666667), wk =   0.0277778
        k(   11) = (   0.0000000   0.1666667   0.3333333), wk =   0.0277778
        k(   12) = (   0.0000000   0.1666667  -0.5000000), wk =   0.0138889
        k(   13) = (   0.0000000   0.2500000   0.0000000), wk =   0.0138889
        k(   14) = (   0.0000000   0.2500000   0.1666667), wk =   0.0277778
        k(   15) = (   0.0000000   0.2500000   0.3333333), wk =   0.0277778
        k(   16) = (   0.0000000   0.2500000  -0.5000000), wk =   0.0138889
        k(   17) = (   0.0000000   0.3333333   0.0000000), wk =   0.0138889
        k(   18) = (   0.0000000   0.3333333   0.1666667), wk =   0.0277778
        k(   19) = (   0.0000000   0.3333333   0.3333333), wk =   0.0277778
        k(   20) = (   0.0000000   0.3333333  -0.5000000), wk =   0.0138889
        k(   21) = (   0.0000000   0.4166667   0.0000000), wk =   0.0138889
        k(   22) = (   0.0000000   0.4166667   0.1666667), wk =   0.0277778
        k(   23) = (   0.0000000   0.4166667   0.3333333), wk =   0.0277778
        k(   24) = (   0.0000000   0.4166667  -0.5000000), wk =   0.0138889
        k(   25) = (   0.0000000  -0.5000000   0.0000000), wk =   0.0069444
        k(   26) = (   0.0000000  -0.5000000   0.1666667), wk =   0.0138889
        k(   27) = (   0.0000000  -0.5000000   0.3333333), wk =   0.0138889
        k(   28) = (   0.0000000  -0.5000000  -0.5000000), wk =   0.0069444
        k(   29) = (   0.0833333   0.0833333   0.0000000), wk =   0.0138889
        k(   30) = (   0.0833333   0.0833333   0.1666667), wk =   0.0277778
        k(   31) = (   0.0833333   0.0833333   0.3333333), wk =   0.0277778
        k(   32) = (   0.0833333   0.0833333  -0.5000000), wk =   0.0138889
        k(   33) = (   0.0833333   0.1666667   0.0000000), wk =   0.0277778
        k(   34) = (   0.0833333   0.1666667   0.1666667), wk =   0.0555556
        k(   35) = (   0.0833333   0.1666667   0.3333333), wk =   0.0555556
        k(   36) = (   0.0833333   0.1666667  -0.5000000), wk =   0.0277778
        k(   37) = (   0.0833333   0.2500000   0.0000000), wk =   0.0277778
        k(   38) = (   0.0833333   0.2500000   0.1666667), wk =   0.0555556
        k(   39) = (   0.0833333   0.2500000   0.3333333), wk =   0.0555556
        k(   40) = (   0.0833333   0.2500000  -0.5000000), wk =   0.0277778
        k(   41) = (   0.0833333   0.3333333   0.0000000), wk =   0.0277778
        k(   42) = (   0.0833333   0.3333333   0.1666667), wk =   0.0555556
        k(   43) = (   0.0833333   0.3333333   0.3333333), wk =   0.0555556
        k(   44) = (   0.0833333   0.3333333  -0.5000000), wk =   0.0277778
        k(   45) = (   0.0833333   0.4166667   0.0000000), wk =   0.0277778
        k(   46) = (   0.0833333   0.4166667   0.1666667), wk =   0.0555556
        k(   47) = (   0.0833333   0.4166667   0.3333333), wk =   0.0555556
        k(   48) = (   0.0833333   0.4166667  -0.5000000), wk =   0.0277778
        k(   49) = (   0.1666667   0.1666667   0.0000000), wk =   0.0138889
        k(   50) = (   0.1666667   0.1666667   0.1666667), wk =   0.0277778
        k(   51) = (   0.1666667   0.1666667   0.3333333), wk =   0.0277778
        k(   52) = (   0.1666667   0.1666667  -0.5000000), wk =   0.0138889
        k(   53) = (   0.1666667   0.2500000   0.0000000), wk =   0.0277778
        k(   54) = (   0.1666667   0.2500000   0.1666667), wk =   0.0555556
        k(   55) = (   0.1666667   0.2500000   0.3333333), wk =   0.0555556
        k(   56) = (   0.1666667   0.2500000  -0.5000000), wk =   0.0277778
        k(   57) = (   0.1666667   0.3333333   0.0000000), wk =   0.0277778
        k(   58) = (   0.1666667   0.3333333   0.1666667), wk =   0.0555556
        k(   59) = (   0.1666667   0.3333333   0.3333333), wk =   0.0555556
        k(   60) = (   0.1666667   0.3333333  -0.5000000), wk =   0.0277778
        k(   61) = (   0.1666667   0.4166667   0.0000000), wk =   0.0138889
        k(   62) = (   0.1666667   0.4166667   0.1666667), wk =   0.0277778
        k(   63) = (   0.1666667   0.4166667   0.3333333), wk =   0.0277778
        k(   64) = (   0.1666667   0.4166667  -0.5000000), wk =   0.0138889
        k(   65) = (   0.2500000   0.2500000   0.0000000), wk =   0.0138889
        k(   66) = (   0.2500000   0.2500000   0.1666667), wk =   0.0277778
        k(   67) = (   0.2500000   0.2500000   0.3333333), wk =   0.0277778
        k(   68) = (   0.2500000   0.2500000  -0.5000000), wk =   0.0138889
        k(   69) = (   0.2500000   0.3333333   0.0000000), wk =   0.0277778
        k(   70) = (   0.2500000   0.3333333   0.1666667), wk =   0.0555556
        k(   71) = (   0.2500000   0.3333333   0.3333333), wk =   0.0555556
        k(   72) = (   0.2500000   0.3333333  -0.5000000), wk =   0.0277778
        k(   73) = (   0.3333333   0.3333333   0.0000000), wk =   0.0046296
        k(   74) = (   0.3333333   0.3333333   0.1666667), wk =   0.0092593
        k(   75) = (   0.3333333   0.3333333   0.3333333), wk =   0.0092593
        k(   76) = (   0.3333333   0.3333333  -0.5000000), wk =   0.0046296

     Check: negative core charge=   -0.000003

     The initial density is read from file :
     ./out/Zn.save/charge-density

     Wavefunctions not found or not readable, recomputing them from scratch
     Starting wfcs are   18 randomized atomic wfcs
     Checking if some PAW data can be deallocated...

     Self-consistent Calculation

     iteration #  1     ecut=    70.00 Ry     beta= 0.70
     Davidson diagonalization with overlap

     c_bands:  1 eigenvalues not converged
     c_bands:  1 eigenvalues not converged
     ethr =  1.00E-05,  avg # of iterations = 10.3

     Threshold (ethr) on eigenvalues was too large:
     Diagonalizing with lowered threshold

     Davidson diagonalization with overlap

     ethr =  1.15E-08,  avg # of iterations =  2.6

     total energy              =    -487.44521715 Ry
     estimated scf accuracy    <       0.00000298 Ry

[...]

     total energy              =    -487.44521742 Ry
     estimated scf accuracy    <       0.00000035 Ry

     iteration #  4     ecut=    70.00 Ry     beta= 0.70
     Davidson diagonalization with overlap

     ethr =  1.47E-09,  avg # of iterations =  2.0

     End of self-consistent calculation

          k = 0.0000 0.0000 0.0000 (  1933 PWs)   bands (ev):

     1.0689   3.0941   3.8965   4.1595   4.1595   4.2147   4.2147   4.5850
     4.5850   4.8117   4.8117   7.9800   8.8871  25.8232  30.0646  30.0649

     occupation numbers
     1.0000   1.0000   1.0000   1.0000   1.0000   1.0000   1.0000   1.0000
     1.0000   1.0000   1.0000   1.0000   1.0000   0.0000   0.0000   0.0000

[...]

          k = 0.3333 0.5774-0.2682 (  1908 PWs)   bands (ev):

     3.8611   3.8611   3.9749   3.9749   4.1711   4.1711   4.3820   4.3820
     4.8013   4.8013  12.8664  12.8664  13.7578  13.7578  14.3135  14.3135

     occupation numbers
     1.0000   1.0000   1.0000   1.0000   1.0000   1.0000   1.0000   1.0000
     1.0000   1.0000   0.0000   0.0000   0.0000   0.0000   0.0000   0.0000

     the Fermi energy is    12.0317 ev

!    total energy              =    -487.44521748 Ry
     total all-electron energy =     -7184.239263 Ry
     estimated scf accuracy    <          1.2E-09 Ry
     smearing contrib. (-TS)   =      -0.00016317 Ry
     internal energy E=F+TS    =    -487.44505431 Ry

     The total energy is F=E-TS. E is the sum of the following terms:
     one-electron contribution =    -111.39092886 Ry
     hartree contribution      =      89.55243155 Ry
     xc contribution           =     -94.40311060 Ry
     ewald contribution        =    -180.32404734 Ry
     one-center paw contrib.   =    -190.87939906 Ry
      -> PAW hartree energy AE =     122.78325355 Ry
      -> PAW hartree energy PS =    -122.16285141 Ry
      -> PAW xc energy AE      =    -143.12935233 Ry
      -> PAW xc energy PS      =      47.06925066 Ry
      -> total E_H with PAW    =      90.17283369 Ry
      -> total E_XC with PAW   =    -190.46321227 Ry

     convergence has been achieved in   4 iterations

     Writing all to output data dir ./out/Zn.save/

     General routines

     Parallel routines

     PAW routines

   This run was terminated on:   9:18:36  16Feb2024

   JOB DONE.