     Program PWSCF v.7.2 starts on 25Jul2024 at  9: 2:54

     Reading input from 1.Cu_vac_in_ZnS.scf.qp1.unrlxd.U8.in

     Current dimensions of program PWSCF are:
     Max number of different atomic species (ntypx) = 10
     Max number of k-points (npk) =  40000
     Max angular momentum in pseudopotentials (lmaxx) =  4
     file S.pbe-n-kjpaw_psl.1.0.0.UPF: wavefunction(s)  3S 3P renormalized
     file Zn.pbe-dnl-kjpaw_psl.1.0.0.UPF: wavefunction(s)  4S 3D renormalized
     file Cu.pbe-spn-kjpaw_psl.1.0.0.UPF: wavefunction(s)  4S 3P 3D renormalized

     K-points division:     npool     =      13
     R & G space division:  proc/nbgrp/npool/nimage =     112
     Subspace diagonalization in iterative solution of the eigenvalue problem:
     one sub-group per band group will be used

     Using Slab Decomposition

     bravais-lattice index     =            1
     lattice parameter (alat)  =      20.5686  a.u.
     unit-cell volume          =    8701.8437 (a.u.)^3
     number of atoms/cell      =           63
     number of atomic types    =            3
     number of electrons       =       576.00
     number of Kohn-Sham states=          346
     kinetic-energy cutoff     =     150.0000  Ry
     charge density cutoff     =     600.0000  Ry
     scf convergence threshold =      1.0E-08
     mixing beta               =       0.7000
     number of iterations used =            8  plain     mixing
     Exchange-correlation= SLA  PW   PBX  PBC
                           (   1   4   3   4   0   0   0)
     Hubbard projectors: ortho-atomic
     Hubbard parameters of DFT+U (Dudarev formulation) in eV:
     U(Zn-3d) =  7.0000
     U(Cu-3d) =  8.0000

     Internal variables: lda_plus_u = T, lda_plus_u_kind = 0

     celldm(1)=  20.568554  celldm(2)=   0.000000  celldm(3)=   0.000000
     celldm(4)=   0.000000  celldm(5)=   0.000000  celldm(6)=   0.000000

     crystal axes: (cart. coord. in units of alat)
               a(1) = (   1.000000   0.000000   0.000000 )
               a(2) = (   0.000000   1.000000   0.000000 )
               a(3) = (   0.000000   0.000000   1.000000 )

     reciprocal axes: (cart. coord. in units 2 pi/alat)
               b(1) = (  1.000000  0.000000  0.000000 )
               b(2) = (  0.000000  1.000000  0.000000 )
               b(3) = (  0.000000  0.000000  1.000000 )

     PseudoPot. # 1 for S  read from file:
     /arf/home/amuhaymin/pseudo/S.pbe-n-kjpaw_psl.1.0.0.UPF
     MD5 check sum: fb45dfebcf3e72a4e1bd4a866ec2e262
     Pseudo is Projector augmented-wave + core cor, Zval =  6.0
     Generated using &quot;atomic&quot; code by A. Dal Corso  v.6.3
     Shape of augmentation charge: PSQ
     Using radial grid of 1151 points,  6 beta functions with:
                l(1) =   0
                l(2) =   0
                l(3) =   1
                l(4) =   1
                l(5) =   2
                l(6) =   2
     Q(r) pseudized with 0 coefficients

     PseudoPot. # 2 for Zn read from file:
     /arf/home/amuhaymin/pseudo/Zn.pbe-dnl-kjpaw_psl.1.0.0.UPF
     MD5 check sum: c608214d9520ac179f507641260889e3
     Pseudo is Projector augmented-wave + core cor, Zval = 12.0
     Generated using &quot;atomic&quot; code by A. Dal Corso  v.6.2.2
     Shape of augmentation charge: PSQ
     Using radial grid of 1201 points,  6 beta functions with:
                l(1) =   0
                l(2) =   0
                l(3) =   1
                l(4) =   1
                l(5) =   2
                l(6) =   2
     Q(r) pseudized with 0 coefficients

     PseudoPot. # 3 for Cu read from file:
     /arf/home/amuhaymin/pseudo/Cu.pbe-spn-kjpaw_psl.1.0.0.UPF
     MD5 check sum: e7cbaad2f97193e5fe23251a619a52b0
     Pseudo is Projector augmented-wave + core cor, Zval = 19.0
     Generated using &quot;atomic&quot; code by A. Dal Corso  v.6.3
     Shape of augmentation charge: PSQ
     Using radial grid of 1199 points,  6 beta functions with:
                l(1) =   0
                l(2) =   0
                l(3) =   1
                l(4) =   1
                l(5) =   2
                l(6) =   2
     Q(r) pseudized with 0 coefficients

     atomic species   valence    mass     pseudopotential
        S              6.00    32.06500     S ( 1.00)
        Zn            12.00    65.38000     Zn( 1.00)
        Cu            19.00    63.54600     Cu( 1.00)

     Starting magnetic structure
     atomic species   magnetization
        S            0.000
        Zn           0.000
        Cu           0.000

      6 Sym. Ops. (no inversion) found

                                    s                        frac. trans.

      isym =  1     identity

 cryst.   s( 1) = (     1          0          0      )
                  (     0          1          0      )
                  (     0          0          1      )

 cart.    s( 1) = (  1.0000000  0.0000000  0.0000000 )
                  (  0.0000000  1.0000000  0.0000000 )
                  (  0.0000000  0.0000000  1.0000000 )

      isym =  2     120 deg rotation - cart. axis [-1,-1,-1]

[...]

      isym =  3     120 deg rotation - cart. axis [1,1,1]

[...]

      isym =  4     inv. 180 deg rotation - cart. axis [1,-1,0]

[...]

      isym =  6     inv. 180 deg rotation - cart. axis [0,1,-1]

 cryst.   s( 6) = (     1          0          0      )
                  (     0          0          1      )
                  (     0          1          0      )

 cart.    s( 6) = (  1.0000000  0.0000000  0.0000000 )
                  (  0.0000000  0.0000000  1.0000000 )
                  (  0.0000000  1.0000000  0.0000000 )

     point group C_3v (3m)
     there are  3 classes
     the character table:

       E     2C3   3s_v
A_1    1.00  1.00  1.00
A_2    1.00  1.00 -1.00
E      2.00 -1.00  0.00

     the symmetry operations in each class and the name of the first element:

     E        1
          identity
     2C3      2    3
          120 deg rotation - cart. axis [-1,-1,-1]
     3s_v     4    5    6
          inv. 180 deg rotation - cart. axis [1,-1,0]

   Cartesian axes

     site n.     atom                  positions (alat units)
         1           Zn  tau(   1) = (   0.0000000   0.0000000   0.0000000  )
         2           Zn  tau(   2) = (   0.0000000   0.2500000   0.2500000  )
         3           Zn  tau(   3) = (   0.2500000   0.0000000   0.2500000  )
         4           Zn  tau(   4) = (   0.2500000   0.2500000   0.0000000  )
         5           S   tau(   5) = (   0.1250000   0.3750000   0.3750000  )
         6           S   tau(   6) = (   0.1250000   0.1250000   0.1250000  )
         7           S   tau(   7) = (   0.3750000   0.3750000   0.1250000  )
         8           S   tau(   8) = (   0.3750000   0.1250000   0.3750000  )
         9           Zn  tau(   9) = (   0.0000000   0.0000000   0.5000000  )
        10           Zn  tau(  10) = (   0.0000000   0.2500000   0.7500000  )
        11           Zn  tau(  11) = (   0.2500000   0.0000000   0.7500000  )
        12           Zn  tau(  12) = (   0.2500000   0.2500000   0.5000000  )
        13           S   tau(  13) = (   0.1250000   0.3750000   0.8750000  )
        14           S   tau(  14) = (   0.1250000   0.1250000   0.6250000  )
        15           S   tau(  15) = (   0.3750000   0.3750000   0.6250000  )
        16           S   tau(  16) = (   0.3750000   0.1250000   0.8750000  )
        17           Zn  tau(  17) = (   0.0000000   0.5000000   0.0000000  )
        18           Zn  tau(  18) = (   0.0000000   0.7500000   0.2500000  )
        19           Zn  tau(  19) = (   0.2500000   0.5000000   0.2500000  )
        20           Zn  tau(  20) = (   0.2500000   0.7500000   0.0000000  )
        21           S   tau(  21) = (   0.1250000   0.8750000   0.3750000  )
        22           S   tau(  22) = (   0.1250000   0.6250000   0.1250000  )
        23           S   tau(  23) = (   0.3750000   0.8750000   0.1250000  )
        24           S   tau(  24) = (   0.3750000   0.6250000   0.3750000  )
        25           Zn  tau(  25) = (   0.0000000   0.5000000   0.5000000  )
        26           Zn  tau(  26) = (   0.0000000   0.7500000   0.7500000  )
        27           Zn  tau(  27) = (   0.2500000   0.5000000   0.7500000  )
        28           Zn  tau(  28) = (   0.2500000   0.7500000   0.5000000  )
        29           S   tau(  29) = (   0.1250000   0.8750000   0.8750000  )
        30           S   tau(  30) = (   0.1250000   0.6250000   0.6250000  )
        31           S   tau(  31) = (   0.3750000   0.8750000   0.6250000  )
        32           S   tau(  32) = (   0.3750000   0.6250000   0.8750000  )
        33           Zn  tau(  33) = (   0.5000000   0.0000000   0.0000000  )
        34           Zn  tau(  34) = (   0.5000000   0.2500000   0.2500000  )
        35           Zn  tau(  35) = (   0.7500000   0.0000000   0.2500000  )
        36           Zn  tau(  36) = (   0.7500000   0.2500000   0.0000000  )
        37           S   tau(  37) = (   0.6250000   0.3750000   0.3750000  )
        38           S   tau(  38) = (   0.6250000   0.1250000   0.1250000  )
        39           S   tau(  39) = (   0.8750000   0.3750000   0.1250000  )
        40           S   tau(  40) = (   0.8750000   0.1250000   0.3750000  )
        41           Zn  tau(  41) = (   0.5000000   0.0000000   0.5000000  )
        42           Zn  tau(  42) = (   0.5000000   0.2500000   0.7500000  )
        43           Zn  tau(  43) = (   0.7500000   0.0000000   0.7500000  )
        44           Zn  tau(  44) = (   0.7500000   0.2500000   0.5000000  )
        45           S   tau(  45) = (   0.6250000   0.3750000   0.8750000  )
        46           S   tau(  46) = (   0.6250000   0.1250000   0.6250000  )
        47           S   tau(  47) = (   0.8750000   0.3750000   0.6250000  )
        48           S   tau(  48) = (   0.8750000   0.1250000   0.8750000  )
        49           Zn  tau(  49) = (   0.5000000   0.5000000   0.0000000  )
        50           Zn  tau(  50) = (   0.5000000   0.7500000   0.2500000  )
        51           Zn  tau(  51) = (   0.7500000   0.5000000   0.2500000  )
        52           Zn  tau(  52) = (   0.7500000   0.7500000   0.0000000  )
        53           S   tau(  53) = (   0.6250000   0.8750000   0.3750000  )
        54           S   tau(  54) = (   0.6250000   0.6250000   0.1250000  )
        55           S   tau(  55) = (   0.8750000   0.8750000   0.1250000  )
        56           S   tau(  56) = (   0.8750000   0.6250000   0.3750000  )
        57           Cu  tau(  57) = (   0.5000000   0.5000000   0.5000000  )
        58           Zn  tau(  58) = (   0.5000000   0.7500000   0.7500000  )
        59           Zn  tau(  59) = (   0.7500000   0.5000000   0.7500000  )
        60           Zn  tau(  60) = (   0.7500000   0.7500000   0.5000000  )
        61           S   tau(  61) = (   0.6250000   0.8750000   0.8750000  )
        62           S   tau(  62) = (   0.8750000   0.8750000   0.6250000  )
        63           S   tau(  63) = (   0.8750000   0.6250000   0.8750000  )

   Crystallographic axes

     site n.     atom                  positions (cryst. coord.)
         1           Zn  tau(   1) = (  0.0000000  0.0000000  0.0000000  )
[...]
     atom  29 (R=0.089)  charge=  3.9905  magn= -0.0000
     atom  30 (R=0.089)  charge=  3.9910  magn=  0.0000
     atom  31 (R=0.089)  charge=  3.9829  magn=  0.0000
     atom  32 (R=0.089)  charge=  3.9829  magn=  0.0000
     atom  33 (R=0.089)  charge= 10.1706  magn= -0.0000
     atom  34 (R=0.089)  charge= 10.1690  magn= -0.0000
     atom  35 (R=0.089)  charge= 10.1693  magn=  0.0000
     atom  36 (R=0.089)  charge= 10.1693  magn=  0.0000
     atom  37 (R=0.089)  charge=  3.9715  magn=  0.0000
     atom  38 (R=0.089)  charge=  3.9864  magn= -0.0000
     atom  39 (R=0.089)  charge=  3.9908  magn= -0.0000
     atom  40 (R=0.089)  charge=  3.9908  magn= -0.0000
     atom  41 (R=0.089)  charge= 10.1713  magn= -0.0000
     atom  42 (R=0.089)  charge= 10.1717  magn= -0.0000
     atom  43 (R=0.089)  charge= 10.1722  magn= -0.0000
     atom  44 (R=0.089)  charge= 10.1717  magn= -0.0000
     atom  45 (R=0.089)  charge=  3.9829  magn=  0.0000
     atom  46 (R=0.089)  charge=  3.9910  magn=  0.0000
     atom  47 (R=0.089)  charge=  3.9829  magn=  0.0000
     atom  48 (R=0.089)  charge=  3.9905  magn= -0.0000
     atom  49 (R=0.089)  charge= 10.1713  magn= -0.0000
     atom  50 (R=0.089)  charge= 10.1717  magn= -0.0000
     atom  51 (R=0.089)  charge= 10.1717  magn= -0.0000
     atom  52 (R=0.089)  charge= 10.1722  magn= -0.0000
     atom  53 (R=0.089)  charge=  3.9829  magn=  0.0000
     atom  54 (R=0.089)  charge=  3.9910  magn=  0.0000
     atom  55 (R=0.089)  charge=  3.9905  magn= -0.0000
     atom  56 (R=0.089)  charge=  3.9829  magn=  0.0000
     atom  57 (R=0.089)  charge= 17.4243  magn= -0.0000
     atom  58 (R=0.089)  charge= 10.1328  magn= -0.0000
     atom  59 (R=0.089)  charge= 10.1328  magn= -0.0000
     atom  60 (R=0.089)  charge= 10.1328  magn= -0.0000
     atom  61 (R=0.089)  charge=  3.9825  magn= -0.0000
     atom  62 (R=0.089)  charge=  3.9825  magn= -0.0000
     atom  63 (R=0.089)  charge=  3.9825  magn= -0.0000

     End of self-consistent calculation

 ------ SPIN UP ------------

          k = 0.0000 0.0000 0.0000 (269825 PWs)   bands (ev):

  -103.8368 -61.3501 -61.2177 -61.2177  -7.6117  -7.2919  -7.2919  -7.2596
    -7.1935  -7.1935  -7.1452  -7.1452  -7.1039  -7.0566  -6.9563  -6.9093
    -6.9093  -6.8902  -6.8902  -6.8454  -6.8275  -6.8275  -6.8168  -6.8168
    -6.7954  -6.7600  -6.6991  -6.6991  -6.6574  -6.5981  -6.5980  -6.5980
    -6.4285  -6.3080  -6.3080  -4.4354  -4.4052  -4.4052  -4.4021  -4.3877
    -4.3877  -4.3754  -4.3754  -4.3576  -4.3088  -4.3017  -4.3017  -4.2956
    -4.2956  -4.2886  -3.7722  -3.7722  -3.7575  -3.7454  -3.7330  -3.7330
    -3.7282  -3.7237  -3.7237  -3.7123  -3.7123  -3.7076  -3.7076  -3.7067
    -3.6996  -3.6931  -3.6931  -3.6900  -3.6870  -3.6861  -3.6861  -3.6828
    -3.6801  -3.6801  -3.6720  -3.6583  -3.6583  -3.6443  -3.6443  -3.6407
    -3.6387  -3.6387  -3.6270  -3.6270  -3.6255  -3.6189  -3.6178  -3.6178
    -3.6124  -3.6124  -3.6090  -3.6065  -3.6006  -3.6006  -3.5939  -3.5881
    -3.5881  -3.5854  -3.5854  -3.5831  -3.5775  -3.5631  -3.5627  -3.5568
    -3.5568  -3.5522  -3.5522  -3.5496  -3.5487  -3.5487  -3.5458  -3.5420
    -3.5420  -3.5406  -3.5392  -3.5392  -3.5380  -3.5282  -3.5282  -3.5243
    -3.5232  -3.5232  -3.5088  -3.5088  -3.5059  -3.4993  -3.4850  -3.4848
    -3.4848  -3.4848  -3.4779  -3.4779  -3.4635  -3.4635  -3.4553  -3.4553
    -3.4422  -3.4422  -3.4320  -3.4295  -3.4295  -3.4212  -3.4178  -3.3946
    -3.3946  -3.3896  -3.3878  -3.3878  -3.3728  -3.3728  -3.3683  -3.3680
    -3.3680  -3.3676  -3.3533  -3.3533  -3.3499  -3.3483  -3.3483  -3.3443
    -3.3443  -3.3421  -3.3363  -3.3242  -3.3242  -3.3082  -3.2383  -3.2383
    -3.2278  -3.1872  -3.1760  -3.1760  -3.1534  -3.1534  -3.1307  -3.1307
    -3.1157  -3.0476  -3.0429  -3.0429  -3.0124  -2.9810  -2.9810  -2.9222
    -2.8200  -2.8130  -2.8130  -2.8042  -2.7788  -2.7788   0.2339   0.3179
     0.3424   0.3424   0.6520   0.6520   0.6686   0.7862   0.8669   0.8669
     0.9089   0.9229   0.9229   1.1076   1.1076   1.1156   1.2654   1.2654
     1.3012   1.3399   1.3399   1.3448   1.3994   1.3994   1.6519   1.6797
     1.6797   1.6999   1.6999   2.1398   2.3714   2.5029   2.5265   2.5265
     2.5575   2.5672   2.5672   2.6494   2.6494   2.6737   2.6737   2.7098
     2.7117   2.7117   2.7453   2.8338   2.8423   2.8584   2.8584   2.8614
     2.8614   2.8976   3.0044   3.0044   3.0112   3.0112   3.0178   3.1317
     3.1317   3.1774   3.2055   3.2825   3.2825   3.5222   3.5222   3.6377
     4.0192   4.0320   4.0320   4.0660   4.1068   4.1068   4.1499   4.1499
     4.1577   4.2293   4.2693   4.2693   4.2879   4.3081   4.3081   4.3411
     4.3411   4.3810   4.4699   4.4699   4.4787   4.4850   4.5013   4.5013
     4.5744   4.6240   4.6240   4.8664   4.8664   5.1853   5.3382   5.3382
     5.7454   7.7773   8.0039   8.0039   8.7729   8.7849   8.7849   8.8680
     8.9472   8.9472   9.0569   9.2860   9.5528   9.5722   9.5722   9.9096
     9.9096   9.9779  10.0006  10.0006  10.0555  10.0561  10.0561  10.0916
    10.0982  10.0982  10.2197  10.2197  10.2361  10.2552  10.2622  10.2622
    10.2796  10.2796  10.3266  10.6075  10.6075  10.7308  11.1217  11.1764
    11.1764  11.2240  11.2240  11.3612  11.3938  11.3938  11.4086  11.6681
    11.6988  11.6988  11.8967  11.8989  11.8989  11.9106  12.0879  12.0883
    12.0890  12.1167

     occupation numbers
     1.0000   1.0000   1.0000   1.0000   1.0000   1.0000   1.0000   1.0000
     1.0000   1.0000   1.0000   1.0000   1.0000   1.0000   1.0000   1.0000
     1.0000   1.0000   1.0000   1.0000   1.0000   1.0000   1.0000   1.0000
     1.0000   1.0000   1.0000   1.0000   1.0000   1.0000   1.0000   1.0000
     1.0000   1.0000   1.0000   1.0000   1.0000   1.0000   1.0000   1.0000
     1.0000   1.0000   1.0000   1.0000   1.0000   1.0000   1.0000   1.0000
     1.0000   1.0000   1.0000   1.0000   1.0000   1.0000   1.0000   1.0000
     1.0000   1.0000   1.0000   1.0000   1.0000   1.0000   1.0000   1.0000
     1.0000   1.0000   1.0000   1.0000   1.0000   1.0000   1.0000   1.0000
     1.0000   1.0000   1.0000   1.0000   1.0000   1.0000   1.0000   1.0000
     1.0000   1.0000   1.0000   1.0000   1.0000   1.0000   1.0000   1.0000
     1.0000   1.0000   1.0000   1.0000   1.0000   1.0000   1.0000   1.0000
     1.0000   1.0000   1.0000   1.0000   1.0000   1.0000   1.0000   1.0000
     1.0000   1.0000   1.0000   1.0000   1.0000   1.0000   1.0000   1.0000
     1.0000   1.0000   1.0000   1.0000   1.0000   1.0000   1.0000   1.0000
     1.0000   1.0000   1.0000   1.0000   1.0000   1.0000   1.0000   1.0000
     1.0000   1.0000   1.0000   1.0000   1.0000   1.0000   1.0000   1.0000
     1.0000   1.0000   1.0000   1.0000   1.0000   1.0000   1.0000   1.0000
     1.0000   1.0000   1.0000   1.0000   1.0000   1.0000   1.0000   1.0000
     1.0000   1.0000   1.0000   1.0000   1.0000   1.0000   1.0000   1.0000
     1.0000   1.0000   1.0000   1.0000   1.0000   1.0000   1.0000   1.0000
     1.0000   1.0000   1.0000   1.0000   1.0000   1.0000   1.0000   1.0000
     1.0000   1.0000   1.0000   1.0000   1.0000   1.0000   1.0000   1.0000
     1.0000   1.0000   1.0000   1.0000   1.0000   1.0000   1.0000   1.0000
     1.0000   1.0000   1.0000   1.0000   1.0000   1.0000   1.0000   1.0000
     1.0000   1.0000   1.0000   1.0000   1.0000   1.0000   1.0000   1.0000
     1.0000   1.0000   1.0000   1.0000   1.0000   1.0000   1.0000   1.0000
     1.0000   1.0000   1.0000   1.0000   1.0000   1.0000   1.0000   1.0000
     1.0000   1.0000   1.0000   1.0000   1.0000   1.0000   1.0000   1.0000
     1.0000   1.0000   1.0000   1.0000   1.0000   1.0000   1.0000   1.0000
     1.0000   1.0000   1.0000   1.0000   1.0000   1.0000   1.0000   1.0000
     1.0000   1.0000   1.0000   1.0000   1.0000   1.0000   1.0000   1.0000
     1.0000   1.0000   1.0000   1.0000   1.0000   1.0000   1.0000   1.0000
     1.0000   1.0000   1.0000   1.0000   1.0000   1.0000   1.0000   1.0000
     1.0000   1.0000   1.0000   1.0000   1.0000   1.0000   1.0000   1.0000
     1.0000   1.0000   1.0000   1.0000   1.0000   1.0000   1.0000   1.0000
     0.0000   0.0000   0.0000   0.0000   0.0000   0.0000   0.0000   0.0000
     0.0000   0.0000   0.0000   0.0000   0.0000   0.0000   0.0000   0.0000
     0.0000   0.0000   0.0000   0.0000   0.0000   0.0000   0.0000   0.0000
     0.0000   0.0000   0.0000   0.0000   0.0000   0.0000   0.0000   0.0000
     0.0000   0.0000   0.0000   0.0000   0.0000   0.0000   0.0000   0.0000
     0.0000   0.0000   0.0000   0.0000   0.0000   0.0000   0.0000   0.0000
     0.0000   0.0000   0.0000   0.0000   0.0000   0.0000   0.0000   0.0000
     0.0000   0.0000

[...]

          k =-0.5000-0.5000-0.5000 (269968 PWs)   bands (ev):

[...]

 ------ SPIN DOWN ----------

[...]

          k =-0.2500 0.0000 0.2500 (269929 PWs)   bands (ev):

[...]

          k = 0.2500-0.2500-0.5000 (269988 PWs)   bands (ev):

  -103.8368 -61.3501 -61.2177 -61.2177  -7.4995  -7.4111  -7.3328  -7.2953
    -7.2445  -7.1998  -7.1291  -7.0878  -7.0684  -7.0660  -6.9946  -6.9550
    -6.9367  -6.8836  -6.8507  -6.8346  -6.8170  -6.8071  -6.7789  -6.7691
    -6.7570  -6.7157  -6.6986  -6.6835  -6.6654  -6.6433  -6.6306  -6.6213
    -6.4184  -6.3175  -6.3140  -4.4350  -4.4050  -4.4049  -4.4004  -4.3876
    -4.3874  -4.3754  -4.3751  -4.3580  -4.3092  -4.3015  -4.3012  -4.2949
    -4.2945  -4.2894  -3.7673  -3.7657  -3.7511  -3.7456  -3.7397  -3.7347
    -3.7315  -3.7285  -3.7251  -3.7167  -3.7146  -3.7126  -3.7096  -3.7090
    -3.7013  -3.6979  -3.6934  -3.6899  -3.6872  -3.6821  -3.6781  -3.6735
    -3.6699  -3.6669  -3.6632  -3.6562  -3.6530  -3.6497  -3.6490  -3.6427
    -3.6418  -3.6359  -3.6335  -3.6295  -3.6264  -3.6245  -3.6191  -3.6137
    -3.6121  -3.6084  -3.6053  -3.6039  -3.6014  -3.5980  -3.5942  -3.5907
    -3.5901  -3.5870  -3.5821  -3.5782  -3.5755  -3.5739  -3.5719  -3.5680
    -3.5625  -3.5607  -3.5589  -3.5554  -3.5524  -3.5508  -3.5500  -3.5451
    -3.5404  -3.5365  -3.5345  -3.5307  -3.5278  -3.5266  -3.5234  -3.5188
    -3.5120  -3.5112  -3.5107  -3.5083  -3.5055  -3.4993  -3.4895  -3.4866
    -3.4779  -3.4763  -3.4743  -3.4728  -3.4664  -3.4658  -3.4527  -3.4514
    -3.4468  -3.4448  -3.4430  -3.4386  -3.4328  -3.4248  -3.4076  -3.3992
    -3.3985  -3.3906  -3.3858  -3.3839  -3.3825  -3.3763  -3.3699  -3.3627
    -3.3596  -3.3559  -3.3552  -3.3519  -3.3496  -3.3466  -3.3455  -3.3356
    -3.3347  -3.3321  -3.3301  -3.3279  -3.3253  -3.3119  -3.3067  -3.2745
    -3.2406  -3.2243  -3.1973  -3.1594  -3.1306  -3.1163  -3.0882  -3.0545
    -3.0437  -3.0350  -2.9979  -2.9938  -2.9746  -2.9467  -2.9391  -2.9291
    -2.9033  -2.8855  -2.8734  -2.8601  -2.8389  -2.8340   0.4408   0.5451
     0.6074   0.7064   0.7386   0.7443   0.7818   0.7830   0.8109   0.8241
     0.8337   0.8517   0.8801   0.8954   0.9155   0.9468   0.9641   1.0771
     1.1100   1.1971   1.2033   1.2948   1.3294   1.4091   1.4828   1.6128
     1.6580   1.7295   1.7559   1.8191   2.0743   2.2461   2.3853   2.4216
     2.4483   2.4611   2.5364   2.5701   2.6274   2.6449   2.6940   2.7293
     2.7809   2.8168   2.8780   2.9052   2.9854   3.1432   3.2015   3.2188
     3.2670   3.3083   3.3342   3.3553   3.3757   3.4353   3.4375   3.4649
     3.4716   3.4993   3.5141   3.5287   3.5609   3.5864   3.6025   3.6274
     3.6478   3.6947   3.7003   3.7535   3.7754   3.7990   3.8793   3.8983
     3.9466   3.9805   4.0215   4.0357   4.0945   4.1238   4.1349   4.2047
     4.2455   4.2864   4.3064   4.3337   4.3932   4.4795   4.5967   4.6676
     4.7114   4.7380   4.7935   4.8543   4.8927   4.9199   5.1116   5.1980
     6.0265   7.7681   7.8712   8.7646   8.9499   9.0793   9.1373   9.1777
     9.3859   9.4191   9.4802   9.5238   9.5786   9.6204   9.6434   9.6581
     9.6844   9.7552   9.7895   9.8395   9.8605   9.8912   9.9145   9.9922
    10.0026  10.0301  10.0824  10.1156  10.1440  10.1902  10.2226  10.3231
    10.3928  10.3984  10.4513  10.5989  10.7132  10.7701  10.8180  10.8423
    10.8815  10.9921  11.0533  11.1719  11.2649  11.3332  11.3447  11.4065
    11.4837  11.5313  11.5388  11.5460  11.6182  11.6239  11.6488  11.6727
    11.6840  11.7140

     occupation numbers
     1.0000   1.0000   1.0000   1.0000   1.0000   1.0000   1.0000   1.0000
     1.0000   1.0000   1.0000   1.0000   1.0000   1.0000   1.0000   1.0000
     1.0000   1.0000   1.0000   1.0000   1.0000   1.0000   1.0000   1.0000
     1.0000   1.0000   1.0000   1.0000   1.0000   1.0000   1.0000   1.0000
     1.0000   1.0000   1.0000   1.0000   1.0000   1.0000   1.0000   1.0000
     1.0000   1.0000   1.0000   1.0000   1.0000   1.0000   1.0000   1.0000
     1.0000   1.0000   1.0000   1.0000   1.0000   1.0000   1.0000   1.0000
     1.0000   1.0000   1.0000   1.0000   1.0000   1.0000   1.0000   1.0000
     1.0000   1.0000   1.0000   1.0000   1.0000   1.0000   1.0000   1.0000
     1.0000   1.0000   1.0000   1.0000   1.0000   1.0000   1.0000   1.0000
     1.0000   1.0000   1.0000   1.0000   1.0000   1.0000   1.0000   1.0000
     1.0000   1.0000   1.0000   1.0000   1.0000   1.0000   1.0000   1.0000
     1.0000   1.0000   1.0000   1.0000   1.0000   1.0000   1.0000   1.0000
     1.0000   1.0000   1.0000   1.0000   1.0000   1.0000   1.0000   1.0000
     1.0000   1.0000   1.0000   1.0000   1.0000   1.0000   1.0000   1.0000
     1.0000   1.0000   1.0000   1.0000   1.0000   1.0000   1.0000   1.0000
     1.0000   1.0000   1.0000   1.0000   1.0000   1.0000   1.0000   1.0000
     1.0000   1.0000   1.0000   1.0000   1.0000   1.0000   1.0000   1.0000
     1.0000   1.0000   1.0000   1.0000   1.0000   1.0000   1.0000   1.0000
     1.0000   1.0000   1.0000   1.0000   1.0000   1.0000   1.0000   1.0000
     1.0000   1.0000   1.0000   1.0000   1.0000   1.0000   1.0000   1.0000
     1.0000   1.0000   1.0000   1.0000   1.0000   1.0000   1.0000   1.0000
     1.0000   1.0000   1.0000   1.0000   1.0000   1.0000   1.0000   1.0000
     1.0000   1.0000   1.0000   1.0000   1.0000   1.0000   1.0000   1.0000
     1.0000   1.0000   1.0000   1.0000   1.0000   1.0000   1.0000   1.0000
     1.0000   1.0000   1.0000   1.0000   1.0000   1.0000   1.0000   1.0000
     1.0000   1.0000   1.0000   1.0000   1.0000   1.0000   1.0000   1.0000
     1.0000   1.0000   1.0000   1.0000   1.0000   1.0000   1.0000   1.0000
     1.0000   1.0000   1.0000   1.0000   1.0000   1.0000   1.0000   1.0000
     1.0000   1.0000   1.0000   1.0000   1.0000   1.0000   1.0000   1.0000
     1.0000   1.0000   1.0000   1.0000   1.0000   1.0000   1.0000   1.0000
     1.0000   1.0000   1.0000   1.0000   1.0000   1.0000   1.0000   1.0000
     1.0000   1.0000   1.0000   1.0000   1.0000   1.0000   1.0000   1.0000
     1.0000   1.0000   1.0000   1.0000   1.0000   1.0000   1.0000   1.0000
     1.0000   1.0000   1.0000   1.0000   1.0000   1.0000   1.0000   1.0000
     1.0000   1.0000   1.0000   1.0000   1.0000   1.0000   1.0000   1.0000
     0.0000   0.0000   0.0000   0.0000   0.0000   0.0000   0.0000   0.0000
     0.0000   0.0000   0.0000   0.0000   0.0000   0.0000   0.0000   0.0000
     0.0000   0.0000   0.0000   0.0000   0.0000   0.0000   0.0000   0.0000
     0.0000   0.0000   0.0000   0.0000   0.0000   0.0000   0.0000   0.0000
     0.0000   0.0000   0.0000   0.0000   0.0000   0.0000   0.0000   0.0000
     0.0000   0.0000   0.0000   0.0000   0.0000   0.0000   0.0000   0.0000
     0.0000   0.0000   0.0000   0.0000   0.0000   0.0000   0.0000   0.0000
     0.0000   0.0000

     the Fermi energy is     5.4427 ev

!    total energy              =  -10101.00286742 Ry
     total all-electron energy =   -139419.531916 Ry
     estimated scf accuracy    <          1.8E-09 Ry
     smearing contrib. (-TS)   =      -0.00000000 Ry
     internal energy E=F+TS    =  -10101.00286742 Ry

     The total energy is F=E-TS. E is the sum of the following terms:
     one-electron contribution =   -3090.91307629 Ry
     hartree contribution      =    2122.12924014 Ry
     xc contribution           =   -1660.99887694 Ry
     ewald contribution        =   -2984.70201120 Ry
     Hubbard energy            =       0.28344890 Ry
     one-center paw contrib.   =   -4486.80159202 Ry
      -> PAW hartree energy AE =     123.67304074 Ry
      -> PAW hartree energy PS =    -123.02548077 Ry
      -> PAW xc energy AE      =    -143.25948185 Ry
      -> PAW xc energy PS      =      47.19636702 Ry
      -> total E_H with PAW    =    2122.77680010 Ry
      -> total E_XC with PAW   =   -1757.06199177 Ry

     total magnetization       =    -0.00 Bohr mag/cell
     absolute magnetization    =     0.00 Bohr mag/cell

     convergence has been achieved in  14 iterations

     Writing all to output data dir ./out/Cu_vac_qp1_U8_unrlxd.save/

     General routines

     Parallel routines

     Hubbard U routines

     PAW routines

   This run was terminated on:   9: 6:24  25Jul2024

   JOB DONE.