     Program PWSCF v.7.2 starts on 27Jun2024 at 16:17:53

     Waiting for input...
     Reading input from standard input

     Current dimensions of program PWSCF are:
     Max number of different atomic species (ntypx) = 10
     Max number of k-points (npk) =  40000
     Max angular momentum in pseudopotentials (lmaxx) =  4

     File ./out/rlx.update deleted, as requested

     File ./out/rlx.bfgs deleted, as requested
     file S.pbe-n-kjpaw_psl.1.0.0.UPF: wavefunction(s)  3S 3P renormalized
     file Zn.pbe-dnl-kjpaw_psl.1.0.0.UPF: wavefunction(s)  4S 3D renormalized
     file Co.pbe-spn-kjpaw_psl.0.3.1.UPF: wavefunction(s)  3P 3D renormalized

     K-points division:     npool     =       5
     R & G space division:  proc/nbgrp/npool/nimage =     112
     Subspace diagonalization in iterative solution of the eigenvalue problem:
     one sub-group per band group will be used

     Using Slab Decomposition

     bravais-lattice index     =            1
     lattice parameter (alat)  =      20.5686  a.u.
     unit-cell volume          =    8701.8437 (a.u.)^3
     number of atoms/cell      =           64
     number of atomic types    =            3
     number of electrons       =       582.00
     number of Kohn-Sham states=          349
     kinetic-energy cutoff     =     150.0000  Ry
     charge density cutoff     =     600.0000  Ry
     scf convergence threshold =      1.0E-08
     mixing beta               =       0.7000
     number of iterations used =            8  plain     mixing
     energy convergence thresh.=      1.0E-05
     force convergence thresh. =      1.0E-04
     Exchange-correlation= SLA  PW   PBX  PBC
                           (   1   4   3   4   0   0   0)
     nstep                     =           50

     celldm(1)=  20.568554  celldm(2)=   0.000000  celldm(3)=   0.000000
     celldm(4)=   0.000000  celldm(5)=   0.000000  celldm(6)=   0.000000

     crystal axes: (cart. coord. in units of alat)
               a(1) = (   1.000000   0.000000   0.000000 )
               a(2) = (   0.000000   1.000000   0.000000 )
               a(3) = (   0.000000   0.000000   1.000000 )

     reciprocal axes: (cart. coord. in units 2 pi/alat)
               b(1) = (  1.000000  0.000000  0.000000 )
               b(2) = (  0.000000  1.000000  0.000000 )
               b(3) = (  0.000000  0.000000  1.000000 )

     PseudoPot. # 1 for S  read from file:
     /arf/home/amuhaymin/pseudo/S.pbe-n-kjpaw_psl.1.0.0.UPF
     MD5 check sum: fb45dfebcf3e72a4e1bd4a866ec2e262
     Pseudo is Projector augmented-wave + core cor, Zval =  6.0
     Generated using &quot;atomic&quot; code by A. Dal Corso  v.6.3
     Shape of augmentation charge: PSQ
     Using radial grid of 1151 points,  6 beta functions with:
                l(1) =   0
                l(2) =   0
                l(3) =   1
                l(4) =   1
                l(5) =   2
                l(6) =   2
     Q(r) pseudized with 0 coefficients

     PseudoPot. # 2 for Zn read from file:
     /arf/home/amuhaymin/pseudo/Zn.pbe-dnl-kjpaw_psl.1.0.0.UPF
     MD5 check sum: c608214d9520ac179f507641260889e3
     Pseudo is Projector augmented-wave + core cor, Zval = 12.0
     Generated using &quot;atomic&quot; code by A. Dal Corso  v.6.2.2
     Shape of augmentation charge: PSQ
     Using radial grid of 1201 points,  6 beta functions with:
                l(1) =   0
                l(2) =   0
                l(3) =   1
                l(4) =   1
                l(5) =   2
                l(6) =   2
     Q(r) pseudized with 0 coefficients

     PseudoPot. # 3 for Co read from file:
     /arf/home/amuhaymin/pseudo/Co.pbe-spn-kjpaw_psl.0.3.1.UPF
     MD5 check sum: b0a1ad65bf214e88c1f3d33b20c7d919
     Pseudo is Projector augmented-wave + core cor, Zval = 17.0
     Generated using &quot;atomic&quot; code by A. Dal Corso  v.6.2.2
     Shape of augmentation charge: PSQ
     Using radial grid of 1193 points,  6 beta functions with:
                l(1) =   0
                l(2) =   0
                l(3) =   1
                l(4) =   1
                l(5) =   2
                l(6) =   2
     Q(r) pseudized with 0 coefficients

     atomic species   valence    mass     pseudopotential
        S              6.00    32.06500     S ( 1.00)
        Zn            12.00    65.38000     Zn( 1.00)
        Co            17.00    63.54600     Co( 1.00)

     Starting magnetic structure
     atomic species   magnetization
        S            0.000
        Zn           0.000
        Co           0.118

     24 Sym. Ops. (no inversion) found

                                    s                        frac. trans.

      isym =  1     identity

 cryst.   s( 1) = (     1          0          0      )
                  (     0          1          0      )
                  (     0          0          1      )

 cart.    s( 1) = (  1.0000000  0.0000000  0.0000000 )
                  (  0.0000000  1.0000000  0.0000000 )
                  (  0.0000000  0.0000000  1.0000000 )

      isym =  2     180 deg rotation - cart. axis [0,0,1]

[...]

 cryst.   s( 9) = (     0          1          0      )
                  (     0          0          1      )
                  (     1          0          0      )

 cart.    s( 9) = (  0.0000000  0.0000000  1.0000000 )
                  (  1.0000000  0.0000000  0.0000000 )
                  (  0.0000000  1.0000000  0.0000000 )

[...]

 cryst.   s(10) = (     0         -1          0      )
                  (     0          0         -1      )
                  (     1          0          0      )

 cart.    s(10) = (  0.0000000  0.0000000  1.0000000 )
                  ( -1.0000000  0.0000000  0.0000000 )
                  (  0.0000000 -1.0000000  0.0000000 )

[...]

      isym = 12     120 deg rotation - cart. axis [-1,-1,1]

[...]

      isym = 13     inv. 180 deg rotation - cart. axis [1,1,0]

[...]

      isym = 24     inv.  90 deg rotation - cart. axis [1,0,0]

 cryst.   s(24) = (    -1          0          0      )
                  (     0          0         -1      )
                  (     0          1          0      )

 cart.    s(24) = ( -1.0000000  0.0000000  0.0000000 )
                  (  0.0000000  0.0000000  1.0000000 )
                  (  0.0000000 -1.0000000  0.0000000 )

     point group T_d (-43m)
     there are  5 classes
     the character table:

       E     8C3   3C2   6S4   6s_d
A_1    1.00  1.00  1.00  1.00  1.00
A_2    1.00  1.00  1.00 -1.00 -1.00
E      2.00 -1.00  2.00  0.00  0.00
T_1    3.00  0.00 -1.00  1.00 -1.00
T_2    3.00  0.00 -1.00 -1.00  1.00

     the symmetry operations in each class and the name of the first element:

     E        1
          identity
     8C3      5    7    8    6   12    9   10   11
          120 deg rotation - cart. axis [-1,-1,-1]
     3C2      2    3    4
          180 deg rotation - cart. axis [0,0,1]
     6S4     15   16   20   19   23   24
          inv.  90 deg rotation - cart. axis [0,0,-1]
     6s_d    13   14   17   18   21   22
          inv. 180 deg rotation - cart. axis [1,1,0]

   Cartesian axes

     site n.     atom                  positions (alat units)
         1           Zn  tau(   1) = (   0.0000000   0.0000000   0.0000000  )
         2           Zn  tau(   2) = (  -0.0001013   0.2501603   0.2501603  )
         3           Zn  tau(   3) = (   0.2501603  -0.0001013   0.2501603  )
         4           Zn  tau(   4) = (   0.2501603   0.2501603  -0.0001013  )
         5           S   tau(   5) = (   0.1247822   0.3748238   0.3748238  )
         6           S   tau(   6) = (   0.1249577   0.1249577   0.1249577  )
         7           S   tau(   7) = (   0.3748238   0.3748238   0.1247822  )
         8           S   tau(   8) = (   0.3748238   0.1247822   0.3748238  )
         9           Zn  tau(   9) = (   0.0000000   0.0000000   0.5000000  )
        10           Zn  tau(  10) = (   0.0001013   0.2501603   0.7498397  )
        11           Zn  tau(  11) = (   0.2501603   0.0001013   0.7498397  )
        12           Zn  tau(  12) = (   0.2509544   0.2509544   0.5010004  )
        13           S   tau(  13) = (   0.1247058   0.3749343   0.8752942  )
        14           S   tau(  14) = (   0.1247058   0.1247058   0.6250657  )
        15           S   tau(  15) = (   0.3765179   0.3765179   0.6234821  )
        16           S   tau(  16) = (   0.3749343   0.1247058   0.8752942  )
        17           Zn  tau(  17) = (   0.0000000   0.5000000   0.0000000  )
        18           Zn  tau(  18) = (   0.0001013   0.7498397   0.2501603  )
        19           Zn  tau(  19) = (   0.2509544   0.5010004   0.2509544  )
        20           Zn  tau(  20) = (   0.2501603   0.7498397   0.0001013  )
        21           S   tau(  21) = (   0.1247058   0.8752942   0.3749343  )
        22           S   tau(  22) = (   0.1247058   0.6250657   0.1247058  )
        23           S   tau(  23) = (   0.3749343   0.8752942   0.1247058  )
        24           S   tau(  24) = (   0.3765179   0.6234821   0.3765179  )
        25           Zn  tau(  25) = (   0.0000000   0.5000000   0.5000000  )
        26           Zn  tau(  26) = (  -0.0001013   0.7498397   0.7498397  )
        27           Zn  tau(  27) = (   0.2509544   0.4989996   0.7490456  )
        28           Zn  tau(  28) = (   0.2509544   0.7490456   0.4989996  )
        29           S   tau(  29) = (   0.1249577   0.8750423   0.8750423  )
        30           S   tau(  30) = (   0.1247822   0.6251762   0.6251762  )
        31           S   tau(  31) = (   0.3748238   0.8752178   0.6251762  )
        32           S   tau(  32) = (   0.3748238   0.6251762   0.8752178  )
        33           Zn  tau(  33) = (   0.5000000   0.0000000   0.0000000  )
        34           Zn  tau(  34) = (   0.5010004   0.2509544   0.2509544  )
        35           Zn  tau(  35) = (   0.7498397   0.0001013   0.2501603  )
        36           Zn  tau(  36) = (   0.7498397   0.2501603   0.0001013  )
        37           S   tau(  37) = (   0.6234821   0.3765179   0.3765179  )
        38           S   tau(  38) = (   0.6250657   0.1247058   0.1247058  )
        39           S   tau(  39) = (   0.8752942   0.3749343   0.1247058  )
        40           S   tau(  40) = (   0.8752942   0.1247058   0.3749343  )
        41           Zn  tau(  41) = (   0.5000000   0.0000000   0.5000000  )
        42           Zn  tau(  42) = (   0.4989996   0.2509544   0.7490456  )
        43           Zn  tau(  43) = (   0.7498397  -0.0001013   0.7498397  )
        44           Zn  tau(  44) = (   0.7490456   0.2509544   0.4989996  )
        45           S   tau(  45) = (   0.6251762   0.3748238   0.8752178  )
        46           S   tau(  46) = (   0.6251762   0.1247822   0.6251762  )
        47           S   tau(  47) = (   0.8752178   0.3748238   0.6251762  )
        48           S   tau(  48) = (   0.8750423   0.1249577   0.8750423  )
        49           Zn  tau(  49) = (   0.5000000   0.5000000   0.0000000  )
        50           Zn  tau(  50) = (   0.4989996   0.7490456   0.2509544  )
        51           Zn  tau(  51) = (   0.7490456   0.4989996   0.2509544  )
        52           Zn  tau(  52) = (   0.7498397   0.7498397  -0.0001013  )
[...]
     atom   11 type  2   force =     0.00000000    0.00000000    0.00000000
     atom   12 type  2   force =     0.00000000    0.00000000    0.00000000
     atom   13 type  1   force =     0.00000000    0.00000000    0.00000000
     atom   14 type  1   force =     0.00000000    0.00000000    0.00000000
     atom   15 type  1   force =     0.00000000    0.00000000    0.00000000
     atom   16 type  1   force =     0.00000000    0.00000000    0.00000000
     atom   17 type  2   force =     0.00000000    0.00000000    0.00000000
     atom   18 type  2   force =     0.00000000    0.00000000    0.00000000
     atom   19 type  2   force =     0.00000000    0.00000000    0.00000000
     atom   20 type  2   force =     0.00000000    0.00000000    0.00000000
     atom   21 type  1   force =     0.00000000    0.00000000    0.00000000
     atom   22 type  1   force =     0.00000000    0.00000000    0.00000000
     atom   23 type  1   force =     0.00000000    0.00000000    0.00000000
     atom   24 type  1   force =     0.00000000    0.00000000    0.00000000
     atom   25 type  2   force =     0.00000000    0.00000000    0.00000000
     atom   26 type  2   force =     0.00000000    0.00000000    0.00000000
     atom   27 type  2   force =     0.00000000    0.00000000    0.00000000
     atom   28 type  2   force =     0.00000000    0.00000000    0.00000000
     atom   29 type  1   force =     0.00000000    0.00000000    0.00000000
     atom   30 type  1   force =     0.00000000    0.00000000    0.00000000
     atom   31 type  1   force =     0.00000000    0.00000000    0.00000000
     atom   32 type  1   force =     0.00000000    0.00000000    0.00000000
     atom   33 type  2   force =     0.00000000    0.00000000    0.00000000
     atom   34 type  2   force =     0.00000000    0.00000000    0.00000000
     atom   35 type  2   force =     0.00000000    0.00000000    0.00000000
     atom   36 type  2   force =     0.00000000    0.00000000    0.00000000
     atom   37 type  1   force =     0.00000000    0.00000000    0.00000000
     atom   38 type  1   force =     0.00000000    0.00000000    0.00000000
     atom   39 type  1   force =     0.00000000    0.00000000    0.00000000
     atom   40 type  1   force =     0.00000000    0.00000000    0.00000000
     atom   41 type  2   force =     0.00000000    0.00000000    0.00000000
     atom   42 type  2   force =     0.00000000    0.00000000    0.00000000
     atom   43 type  2   force =     0.00000000    0.00000000    0.00000000
     atom   44 type  2   force =     0.00000000    0.00000000    0.00000000
     atom   45 type  1   force =     0.00000000    0.00000000    0.00000000
     atom   46 type  1   force =     0.00000000    0.00000000    0.00000000
     atom   47 type  1   force =     0.00000000    0.00000000    0.00000000
     atom   48 type  1   force =     0.00000000    0.00000000    0.00000000
     atom   49 type  2   force =     0.00000000    0.00000000    0.00000000
     atom   50 type  2   force =     0.00000000    0.00000000    0.00000000
     atom   51 type  2   force =     0.00000000    0.00000000    0.00000000
     atom   52 type  2   force =     0.00000000    0.00000000    0.00000000
     atom   53 type  1   force =     0.00000000    0.00000000    0.00000000
     atom   54 type  1   force =     0.00000000    0.00000000    0.00000000
     atom   55 type  1   force =     0.00000000    0.00000000    0.00000000
     atom   56 type  1   force =     0.00000000    0.00000000    0.00000000
     atom   57 type  3   force =     0.00000000    0.00000000    0.00000000
     atom   58 type  2   force =     0.00000000    0.00000000    0.00000000
     atom   59 type  2   force =     0.00000000    0.00000000    0.00000000
     atom   60 type  2   force =     0.00000000    0.00000000    0.00000000
     atom   61 type  1   force =     0.00000000    0.00000000    0.00000000
     atom   62 type  1   force =     0.00000000    0.00000000    0.00000000
     atom   63 type  1   force =     0.00000000    0.00000000    0.00000000
     atom   64 type  1   force =     0.00000000    0.00000000    0.00000000
     The SCF correction term to forces
     atom    1 type  2   force =    -0.00000000   -0.00000000   -0.00000000
     atom    2 type  2   force =    -0.00000287    0.00000340    0.00000340
     atom    3 type  2   force =     0.00000340   -0.00000287    0.00000340
     atom    4 type  2   force =     0.00000340    0.00000340   -0.00000287
     atom    5 type  1   force =    -0.00000189   -0.00000006   -0.00000006
     atom    6 type  1   force =    -0.00000050   -0.00000050   -0.00000050
     atom    7 type  1   force =    -0.00000006   -0.00000006   -0.00000189
     atom    8 type  1   force =    -0.00000006   -0.00000189   -0.00000006
     atom    9 type  2   force =     0.00000000   -0.00000000    0.00000000
     atom   10 type  2   force =     0.00000287    0.00000340   -0.00000340
     atom   11 type  2   force =     0.00000340    0.00000287   -0.00000340
     atom   12 type  2   force =    -0.00000401   -0.00000401    0.00000083
     atom   13 type  1   force =     0.00000058   -0.00000112   -0.00000058
     atom   14 type  1   force =     0.00000058    0.00000058    0.00000112
     atom   15 type  1   force =    -0.00000260   -0.00000260    0.00000260
     atom   16 type  1   force =    -0.00000112    0.00000058   -0.00000058
     atom   17 type  2   force =    -0.00000000    0.00000000   -0.00000000
     atom   18 type  2   force =     0.00000287   -0.00000340    0.00000340
     atom   19 type  2   force =    -0.00000401    0.00000083   -0.00000401
     atom   20 type  2   force =     0.00000340   -0.00000340    0.00000287
     atom   21 type  1   force =     0.00000058   -0.00000058   -0.00000112
     atom   22 type  1   force =     0.00000058    0.00000112    0.00000058
     atom   23 type  1   force =    -0.00000112   -0.00000058    0.00000058
     atom   24 type  1   force =    -0.00000260    0.00000260   -0.00000260
     atom   25 type  2   force =     0.00000000    0.00000000    0.00000000
     atom   26 type  2   force =    -0.00000287   -0.00000340   -0.00000340
     atom   27 type  2   force =    -0.00000401   -0.00000083    0.00000401
     atom   28 type  2   force =    -0.00000401    0.00000401   -0.00000083
     atom   29 type  1   force =    -0.00000050    0.00000050    0.00000050
     atom   30 type  1   force =    -0.00000189    0.00000006    0.00000006
     atom   31 type  1   force =    -0.00000006    0.00000189    0.00000006
     atom   32 type  1   force =    -0.00000006    0.00000006    0.00000189
     atom   33 type  2   force =    -0.00000000   -0.00000000   -0.00000000
     atom   34 type  2   force =     0.00000083   -0.00000401   -0.00000401
     atom   35 type  2   force =    -0.00000340    0.00000287    0.00000340
     atom   36 type  2   force =    -0.00000340    0.00000340    0.00000287
     atom   37 type  1   force =     0.00000260   -0.00000260   -0.00000260
     atom   38 type  1   force =     0.00000112    0.00000058    0.00000058
     atom   39 type  1   force =    -0.00000058   -0.00000112    0.00000058
     atom   40 type  1   force =    -0.00000058    0.00000058   -0.00000112
     atom   41 type  2   force =    -0.00000000   -0.00000000    0.00000000
     atom   42 type  2   force =    -0.00000083   -0.00000401    0.00000401
     atom   43 type  2   force =    -0.00000340   -0.00000287   -0.00000340
     atom   44 type  2   force =     0.00000401   -0.00000401   -0.00000083
     atom   45 type  1   force =     0.00000006   -0.00000006    0.00000189
     atom   46 type  1   force =     0.00000006   -0.00000189    0.00000006
     atom   47 type  1   force =     0.00000189   -0.00000006    0.00000006
     atom   48 type  1   force =     0.00000050   -0.00000050    0.00000050
     atom   49 type  2   force =    -0.00000000    0.00000000   -0.00000000
     atom   50 type  2   force =    -0.00000083    0.00000401   -0.00000401
     atom   51 type  2   force =     0.00000401   -0.00000083   -0.00000401
     atom   52 type  2   force =    -0.00000340   -0.00000340   -0.00000287
     atom   53 type  1   force =     0.00000006    0.00000189   -0.00000006
     atom   54 type  1   force =     0.00000006    0.00000006   -0.00000189
     atom   55 type  1   force =     0.00000050    0.00000050   -0.00000050
     atom   56 type  1   force =     0.00000189    0.00000006   -0.00000006
     atom   57 type  3   force =    -0.00000000   -0.00000000   -0.00000000
     atom   58 type  2   force =     0.00000083    0.00000401    0.00000401
     atom   59 type  2   force =     0.00000401    0.00000083    0.00000401
     atom   60 type  2   force =     0.00000401    0.00000401    0.00000083
     atom   61 type  1   force =     0.00000112   -0.00000058   -0.00000058
     atom   62 type  1   force =     0.00000260    0.00000260    0.00000260
     atom   63 type  1   force =    -0.00000058   -0.00000058    0.00000112
     atom   64 type  1   force =    -0.00000058    0.00000112   -0.00000058

     Total force =     0.000419     Total SCF correction =     0.000030

     Computing stress (Cartesian axis) and pressure

          total   stress  (Ry/bohr**3)                   (kbar)     P=       12.77
   0.00008678   0.00000000   0.00000000           12.77        0.00        0.00
   0.00000000   0.00008678   0.00000000            0.00       12.77        0.00
   0.00000000   0.00000000   0.00008678            0.00        0.00       12.77

     kinetic stress (kbar)  12248.04      0.00      0.00
                                0.00  12248.04      0.00
                                0.00      0.00  12248.04

     local   stress (kbar)  -1185.84     -0.00     -0.00
                               -0.00  -1185.84     -0.00
                               -0.00     -0.00  -1185.84

     nonloc. stress (kbar)   -471.61      0.00      0.00
                                0.00   -471.61      0.00
                                0.00      0.00   -471.61

     hartree stress (kbar)  11508.64      0.00     -0.00
                                0.00  11508.64     -0.00
                               -0.00     -0.00  11508.64

     exc-cor stress (kbar)   8258.85      0.00      0.00
                                0.00   8258.85      0.00
                                0.00      0.00   8258.85

     corecor stress (kbar) -13528.26     -0.00     -0.00
                               -0.00 -13528.26     -0.00
                               -0.00     -0.00 -13528.26

     ewald   stress (kbar) -16817.05      0.00      0.00
                                0.00 -16817.05      0.00
                                0.00      0.00 -16817.05

     hubbard stress (kbar)      0.00      0.00      0.00
                                0.00      0.00      0.00
                                0.00      0.00      0.00

     DFT-D   stress (kbar)      0.00      0.00      0.00
                                0.00      0.00      0.00
                                0.00      0.00      0.00

     XDM     stress (kbar)      0.00      0.00      0.00
                                0.00      0.00      0.00
                                0.00      0.00      0.00

     dft-nl  stress (kbar)      0.00      0.00      0.00
                                0.00      0.00      0.00
                                0.00      0.00      0.00

     TS-vdW  stress (kbar)      0.00      0.00      0.00
                                0.00      0.00      0.00
                                0.00      0.00      0.00

     MDB     stress (kbar)      0.00      0.00      0.00
                                0.00      0.00      0.00
                                0.00      0.00      0.00

     3D-RISM stress (kbar)      0.00      0.00      0.00
                                0.00      0.00      0.00
                                0.00      0.00      0.00

     Energy error            =      1.9E-06 Ry
     Gradient error          =      6.4E-05 Ry/Bohr

     bfgs converged in  14 scf cycles and  13 bfgs steps
     (criteria: energy <  1.0E-05 Ry, force <  1.0E-04 Ry/Bohr)

     End of BFGS Geometry Optimization

     Final energy             =  -10056.7238618396 Ry

     File ./out/rlx.bfgs deleted, as requested
Begin final coordinates

ATOMIC_POSITIONS (crystal)
Zn            0.0000000000        0.0000000000        0.0000000000
Zn            0.0001067222        0.2504661138        0.2504661138
Zn            0.2504661138        0.0001067222        0.2504661138
Zn            0.2504661138        0.2504661138        0.0001067222
S             0.1255070977        0.3751040162        0.3751040162
S             0.1250482974        0.1250482974        0.1250482974
S             0.3751040162        0.3751040162        0.1255070977
S             0.3751040162        0.1255070977        0.3751040162
Zn            0.0000000000       -0.0000000000        0.5000000000
Zn           -0.0001067222        0.2504661138        0.7495338862
Zn            0.2504661138       -0.0001067222        0.7495338862
Zn            0.2526730068        0.2526730068        0.5023971007
S             0.1251956116        0.3751200938        0.8748043884
S             0.1251956116        0.1251956116        0.6248799062
S             0.3789502407        0.3789502407        0.6210497593
S             0.3751200938        0.1251956116        0.8748043884
Zn            0.0000000000        0.5000000000        0.0000000000
Zn           -0.0001067222        0.7495338862        0.2504661138
Zn            0.2526730068        0.5023971007        0.2526730068
Zn            0.2504661138        0.7495338862       -0.0001067222
S             0.1251956116        0.8748043884        0.3751200938
S             0.1251956116        0.6248799062        0.1251956116
S             0.3751200938        0.8748043884        0.1251956116
S             0.3789502407        0.6210497593        0.3789502407
Zn            0.0000000000        0.5000000000        0.5000000000
Zn            0.0001067222        0.7495338862        0.7495338862
Zn            0.2526730068        0.4976028993        0.7473269932
Zn            0.2526730068        0.7473269932        0.4976028993
S             0.1250482974        0.8749517026        0.8749517026
S             0.1255070977        0.6248959838        0.6248959838
S             0.3751040162        0.8744929023        0.6248959838
S             0.3751040162        0.6248959838        0.8744929023
Zn            0.5000000000        0.0000000000        0.0000000000
Zn            0.5023971007        0.2526730068        0.2526730068
Zn            0.7495338862       -0.0001067222        0.2504661138
Zn            0.7495338862        0.2504661138       -0.0001067222
S             0.6210497593        0.3789502407        0.3789502407
S             0.6248799062        0.1251956116        0.1251956116
S             0.8748043884        0.3751200938        0.1251956116
S             0.8748043884        0.1251956116        0.3751200938
Zn            0.5000000000       -0.0000000000        0.5000000000
Zn            0.4976028993        0.2526730068        0.7473269932
Zn            0.7495338862        0.0001067222        0.7495338862
Zn            0.7473269932        0.2526730068        0.4976028993
S             0.6248959838        0.3751040162        0.8744929023
S             0.6248959838        0.1255070977        0.6248959838
S             0.8744929023        0.3751040162        0.6248959838
S             0.8749517026        0.1250482974        0.8749517026
Zn            0.5000000000        0.5000000000        0.0000000000
Zn            0.4976028993        0.7473269932        0.2526730068
Zn            0.7473269932        0.4976028993        0.2526730068
Zn            0.7495338862        0.7495338862        0.0001067222
S             0.6248959838        0.8744929023        0.3751040162
S             0.6248959838        0.6248959838        0.1255070977
S             0.8749517026        0.8749517026        0.1250482974
S             0.8744929023        0.6248959838        0.3751040162
Co            0.5000000000        0.5000000000        0.5000000000
Zn            0.5023971007        0.7473269932        0.7473269932
Zn            0.7473269932        0.5023971007        0.7473269932
Zn            0.7473269932        0.7473269932        0.5023971007
S             0.6248799062        0.8748043884        0.8748043884
S             0.6210497593        0.6210497593        0.6210497593
S             0.8748043884        0.8748043884        0.6248799062
S             0.8748043884        0.6248799062        0.8748043884
End final coordinates

     General routines

     Parallel routines

     PAW routines

   This run was terminated on:  17:50:50  27Jun2024

   JOB DONE.