     Program PWSCF v.7.2 starts on  7Jul2024 at  3:43:26

     Reading input from 2.Co_vac_in_ZnS.scf.qn1.in

     Current dimensions of program PWSCF are:
     Max number of different atomic species (ntypx) = 10
     Max number of k-points (npk) =  40000
     Max angular momentum in pseudopotentials (lmaxx) =  4
     file S.pbe-n-kjpaw_psl.1.0.0.UPF: wavefunction(s)  3S 3P renormalized
     file Zn.pbe-dnl-kjpaw_psl.1.0.0.UPF: wavefunction(s)  4S 3D renormalized
     file Co.pbe-spn-kjpaw_psl.0.3.1.UPF: wavefunction(s)  3P 3D renormalized

     K-points division:     npool     =       7
     R & G space division:  proc/nbgrp/npool/nimage =     112
     Subspace diagonalization in iterative solution of the eigenvalue problem:
     one sub-group per band group will be used

     Using Slab Decomposition

     bravais-lattice index     =            1
     lattice parameter (alat)  =      20.5686  a.u.
     unit-cell volume          =    8701.8437 (a.u.)^3
     number of atoms/cell      =           63
     number of atomic types    =            3
     number of electrons       =       576.00
     number of Kohn-Sham states=          346
     kinetic-energy cutoff     =     150.0000  Ry
     charge density cutoff     =     600.0000  Ry
     scf convergence threshold =      1.0E-08
     mixing beta               =       0.7000
     number of iterations used =            8  plain     mixing
     Exchange-correlation= SLA  PW   PBX  PBC
                           (   1   4   3   4   0   0   0)

     celldm(1)=  20.568554  celldm(2)=   0.000000  celldm(3)=   0.000000
     celldm(4)=   0.000000  celldm(5)=   0.000000  celldm(6)=   0.000000

     crystal axes: (cart. coord. in units of alat)
               a(1) = (   1.000000   0.000000   0.000000 )
               a(2) = (   0.000000   1.000000   0.000000 )
               a(3) = (   0.000000   0.000000   1.000000 )

     reciprocal axes: (cart. coord. in units 2 pi/alat)
               b(1) = (  1.000000  0.000000  0.000000 )
               b(2) = (  0.000000  1.000000  0.000000 )
               b(3) = (  0.000000  0.000000  1.000000 )

     PseudoPot. # 1 for S  read from file:
     /arf/home/amuhaymin/pseudo/S.pbe-n-kjpaw_psl.1.0.0.UPF
     MD5 check sum: fb45dfebcf3e72a4e1bd4a866ec2e262
     Pseudo is Projector augmented-wave + core cor, Zval =  6.0
     Generated using &quot;atomic&quot; code by A. Dal Corso  v.6.3
     Shape of augmentation charge: PSQ
     Using radial grid of 1151 points,  6 beta functions with:
                l(1) =   0
                l(2) =   0
                l(3) =   1
                l(4) =   1
                l(5) =   2
                l(6) =   2
     Q(r) pseudized with 0 coefficients

     PseudoPot. # 2 for Zn read from file:
     /arf/home/amuhaymin/pseudo/Zn.pbe-dnl-kjpaw_psl.1.0.0.UPF
     MD5 check sum: c608214d9520ac179f507641260889e3
     Pseudo is Projector augmented-wave + core cor, Zval = 12.0
     Generated using &quot;atomic&quot; code by A. Dal Corso  v.6.2.2
     Shape of augmentation charge: PSQ
     Using radial grid of 1201 points,  6 beta functions with:
                l(1) =   0
                l(2) =   0
                l(3) =   1
                l(4) =   1
                l(5) =   2
                l(6) =   2
     Q(r) pseudized with 0 coefficients

     PseudoPot. # 3 for Co read from file:
     /arf/home/amuhaymin/pseudo/Co.pbe-spn-kjpaw_psl.0.3.1.UPF
     MD5 check sum: b0a1ad65bf214e88c1f3d33b20c7d919
     Pseudo is Projector augmented-wave + core cor, Zval = 17.0
     Generated using &quot;atomic&quot; code by A. Dal Corso  v.6.2.2
     Shape of augmentation charge: PSQ
     Using radial grid of 1193 points,  6 beta functions with:
                l(1) =   0
                l(2) =   0
                l(3) =   1
                l(4) =   1
                l(5) =   2
                l(6) =   2
     Q(r) pseudized with 0 coefficients

     atomic species   valence    mass     pseudopotential
        S              6.00    32.06500     S ( 1.00)
        Zn            12.00    65.38000     Zn( 1.00)
        Co            17.00    63.54600     Co( 1.00)

     Starting magnetic structure
     atomic species   magnetization
        S            0.000
        Zn           0.000
        Co           0.118

      6 Sym. Ops. (no inversion) found

                                    s                        frac. trans.

      isym =  1     identity

 cryst.   s( 1) = (     1          0          0      )
                  (     0          1          0      )
                  (     0          0          1      )

 cart.    s( 1) = (  1.0000000  0.0000000  0.0000000 )
                  (  0.0000000  1.0000000  0.0000000 )
                  (  0.0000000  0.0000000  1.0000000 )

      isym =  2     120 deg rotation - cart. axis [-1,-1,-1]

[...]

      isym =  3     120 deg rotation - cart. axis [1,1,1]

[...]

      isym =  4     inv. 180 deg rotation - cart. axis [1,-1,0]

[...]

      isym =  6     inv. 180 deg rotation - cart. axis [0,1,-1]

 cryst.   s( 6) = (     1          0          0      )
                  (     0          0          1      )
                  (     0          1          0      )

 cart.    s( 6) = (  1.0000000  0.0000000  0.0000000 )
                  (  0.0000000  0.0000000  1.0000000 )
                  (  0.0000000  1.0000000  0.0000000 )

     point group C_3v (3m)
     there are  3 classes
     the character table:

       E     2C3   3s_v
A_1    1.00  1.00  1.00
A_2    1.00  1.00 -1.00
E      2.00 -1.00  0.00

     the symmetry operations in each class and the name of the first element:

     E        1
          identity
     2C3      2    3
          120 deg rotation - cart. axis [-1,-1,-1]
     3s_v     4    5    6
          inv. 180 deg rotation - cart. axis [1,-1,0]

   Cartesian axes

     site n.     atom                  positions (alat units)
         1           Zn  tau(   1) = (   0.0002685   0.0002685   0.0002685  )
         2           Zn  tau(   2) = (  -0.0013734   0.2504219   0.2504219  )
         3           Zn  tau(   3) = (   0.2504219  -0.0013734   0.2504219  )
         4           Zn  tau(   4) = (   0.2504219   0.2504219  -0.0013734  )
         5           S   tau(   5) = (   0.1238228   0.3754876   0.3754876  )
         6           S   tau(   6) = (   0.1254272   0.1254272   0.1254272  )
         7           S   tau(   7) = (   0.3754876   0.3754876   0.1238228  )
         8           S   tau(   8) = (   0.3754876   0.1238228   0.3754876  )
         9           Zn  tau(   9) = (  -0.0020796  -0.0020796   0.5015394  )
        10           Zn  tau(  10) = (  -0.0035137   0.2552843   0.7481868  )
        11           Zn  tau(  11) = (   0.2552843  -0.0035137   0.7481868  )
        12           Zn  tau(  12) = (   0.2514795   0.2514795   0.5013521  )
        13           S   tau(  13) = (   0.1256102   0.3769291   0.8737318  )
        14           S   tau(  14) = (   0.1245151   0.1245151   0.6261191  )
        15           S   tau(  15) = (   0.3787564   0.3787564   0.6200880  )
        16           S   tau(  16) = (   0.3769291   0.1256102   0.8737318  )
        17           Zn  tau(  17) = (  -0.0020796   0.5015394  -0.0020796  )
        18           Zn  tau(  18) = (  -0.0035137   0.7481868   0.2552843  )
        19           Zn  tau(  19) = (   0.2514795   0.5013521   0.2514795  )
        20           Zn  tau(  20) = (   0.2552843   0.7481868  -0.0035137  )
        21           S   tau(  21) = (   0.1256102   0.8737318   0.3769291  )
        22           S   tau(  22) = (   0.1245151   0.6261191   0.1245151  )
        23           S   tau(  23) = (   0.3769291   0.8737318   0.1256102  )
        24           S   tau(  24) = (   0.3787564   0.6200880   0.3787564  )
        25           Zn  tau(  25) = (  -0.0025318   0.5005987   0.5005987  )
        26           Zn  tau(  26) = (   0.0001888   0.7507329   0.7507329  )
        27           Zn  tau(  27) = (   0.2545383   0.5002458   0.7474508  )
        28           Zn  tau(  28) = (   0.2545383   0.7474508   0.5002458  )
        29           S   tau(  29) = (   0.1270629   0.8752110   0.8752110  )
        30           S   tau(  30) = (   0.1252733   0.6252494   0.6252494  )
        31           S   tau(  31) = (   0.3840279   0.8666768   0.6272526  )
        32           S   tau(  32) = (   0.3840279   0.6272526   0.8666768  )
        33           Zn  tau(  33) = (   0.5015394  -0.0020796  -0.0020796  )
        34           Zn  tau(  34) = (   0.5013521   0.2514795   0.2514795  )
        35           Zn  tau(  35) = (   0.7481868  -0.0035137   0.2552843  )
        36           Zn  tau(  36) = (   0.7481868   0.2552843  -0.0035137  )
        37           S   tau(  37) = (   0.6200880   0.3787564   0.3787564  )
        38           S   tau(  38) = (   0.6261191   0.1245151   0.1245151  )
        39           S   tau(  39) = (   0.8737318   0.3769291   0.1256102  )
        40           S   tau(  40) = (   0.8737318   0.1256102   0.3769291  )
        41           Zn  tau(  41) = (   0.5005987  -0.0025318   0.5005987  )
        42           Zn  tau(  42) = (   0.5002458   0.2545383   0.7474508  )
        43           Zn  tau(  43) = (   0.7507329   0.0001888   0.7507329  )
        44           Zn  tau(  44) = (   0.7474508   0.2545383   0.5002458  )
        45           S   tau(  45) = (   0.6272526   0.3840279   0.8666768  )
        46           S   tau(  46) = (   0.6252494   0.1252733   0.6252494  )
        47           S   tau(  47) = (   0.8666768   0.3840279   0.6272526  )
        48           S   tau(  48) = (   0.8752110   0.1270629   0.8752110  )
        49           Zn  tau(  49) = (   0.5005987   0.5005987  -0.0025318  )
        50           Zn  tau(  50) = (   0.5002458   0.7474508   0.2545383  )
        51           Zn  tau(  51) = (   0.7474508   0.5002458   0.2545383  )
        52           Zn  tau(  52) = (   0.7507329   0.7507329   0.0001888  )
        53           S   tau(  53) = (   0.6272526   0.8666768   0.3840279  )
        54           S   tau(  54) = (   0.6252494   0.6252494   0.1252733  )
        55           S   tau(  55) = (   0.8752110   0.8752110   0.1270629  )
        56           S   tau(  56) = (   0.8666768   0.6272526   0.3840279  )
        57           Co  tau(  57) = (   0.4962129   0.4962129   0.4962129  )
        58           Zn  tau(  58) = (   0.5346594   0.7267326   0.7267326  )
        59           Zn  tau(  59) = (   0.7267326   0.5346594   0.7267326  )
        60           Zn  tau(  60) = (   0.7267326   0.7267326   0.5346594  )
        61           S   tau(  61) = (   0.6261083   0.8718651   0.8718651  )
        62           S   tau(  62) = (   0.8718651   0.8718651   0.6261083  )
        63           S   tau(  63) = (   0.8718651   0.6261083   0.8718651  )

   Crystallographic axes

     site n.     atom                  positions (cryst. coord.)
         1           Zn  tau(   1) = (  0.0002685  0.0002685  0.0002685  )
         2           Zn  tau(   2) = ( -0.0013734  0.2504219  0.2504219  )
         3           Zn  tau(   3) = (  0.2504219 -0.0013734  0.2504219  )
         4           Zn  tau(   4) = (  0.2504219  0.2504219 -0.0013734  )
[...]
     atom  28 (R=0.089)  charge= 10.1400  magn=  0.0026
     atom  29 (R=0.085)  charge=  3.6915  magn= -0.0001
     atom  30 (R=0.085)  charge=  3.6923  magn=  0.0000
     atom  31 (R=0.085)  charge=  3.6757  magn=  0.0010
     atom  32 (R=0.085)  charge=  3.6757  magn=  0.0010
     atom  33 (R=0.089)  charge= 10.1334  magn=  0.0002
     atom  34 (R=0.089)  charge= 10.1353  magn= -0.0010
     atom  35 (R=0.089)  charge= 10.1263  magn= -0.0001
     atom  36 (R=0.089)  charge= 10.1263  magn= -0.0001
     atom  37 (R=0.085)  charge=  3.7032  magn=  0.0202
     atom  38 (R=0.085)  charge=  3.6796  magn= -0.0005
     atom  39 (R=0.085)  charge=  3.6898  magn=  0.0023
     atom  40 (R=0.085)  charge=  3.6898  magn=  0.0023
     atom  41 (R=0.089)  charge= 10.1408  magn=  0.0001
     atom  42 (R=0.089)  charge= 10.1400  magn=  0.0026
     atom  43 (R=0.089)  charge= 10.1428  magn=  0.0001
     atom  44 (R=0.089)  charge= 10.1400  magn=  0.0026
     atom  45 (R=0.085)  charge=  3.6757  magn=  0.0010
     atom  46 (R=0.085)  charge=  3.6923  magn=  0.0000
     atom  47 (R=0.085)  charge=  3.6757  magn=  0.0010
     atom  48 (R=0.085)  charge=  3.6915  magn= -0.0001
     atom  49 (R=0.089)  charge= 10.1408  magn=  0.0001
     atom  50 (R=0.089)  charge= 10.1400  magn=  0.0026
     atom  51 (R=0.089)  charge= 10.1400  magn=  0.0026
     atom  52 (R=0.089)  charge= 10.1428  magn=  0.0001
     atom  53 (R=0.085)  charge=  3.6757  magn=  0.0010
     atom  54 (R=0.085)  charge=  3.6923  magn=  0.0000
     atom  55 (R=0.085)  charge=  3.6915  magn= -0.0001
     atom  56 (R=0.085)  charge=  3.6757  magn=  0.0010
     atom  57 (R=0.085)  charge= 15.0448  magn=  1.6394
     atom  58 (R=0.089)  charge= 10.0702  magn= -0.0003
     atom  59 (R=0.089)  charge= 10.0702  magn= -0.0003
     atom  60 (R=0.089)  charge= 10.0702  magn= -0.0003
     atom  61 (R=0.085)  charge=  3.6865  magn= -0.0009
     atom  62 (R=0.085)  charge=  3.6865  magn= -0.0009
     atom  63 (R=0.085)  charge=  3.6865  magn= -0.0009

     End of self-consistent calculation

 ------ SPIN UP ------------

          k = 0.0000 0.0000 0.0000 (269825 PWs)   bands (ev):

   -88.1762 -51.6867 -51.6867 -51.1010  -7.5180  -7.0094  -6.9963  -6.9963
    -6.9851  -6.9851  -6.9594  -6.7295  -6.7295  -6.7188  -6.7010  -6.6777
    -6.6777  -6.6763  -6.6692  -6.6692  -6.6620  -6.6620  -6.6616  -6.5933
    -6.5806  -6.5806  -6.4525  -6.3886  -6.3886  -6.3870  -6.3300  -6.3300
    -6.3017  -6.2883  -6.2883  -0.8643  -0.8509  -0.8509  -0.8481  -0.8398
    -0.8398  -0.8032  -0.7966  -0.7966  -0.7610  -0.7567  -0.7567  -0.7453
    -0.7453  -0.7412  -0.7347  -0.7347  -0.7231  -0.7231  -0.7198  -0.7166
    -0.7151  -0.7151  -0.7108  -0.6990  -0.6950  -0.6926  -0.6926  -0.6913
    -0.6913  -0.6832  -0.6826  -0.6826  -0.6760  -0.6756  -0.6756  -0.6632
    -0.6632  -0.6622  -0.6553  -0.6553  -0.6548  -0.6515  -0.6515  -0.6444
    -0.6401  -0.6331  -0.6310  -0.6310  -0.6220  -0.6220  -0.6126  -0.6126
    -0.6057  -0.6012  -0.6012  -0.5735  -0.5631  -0.5591  -0.5591  -0.5554
    -0.5554  -0.5452  -0.5452  -0.5452  -0.5327  -0.5327  -0.5263  -0.5261
    -0.5132  -0.5132  -0.5070  -0.4963  -0.4963  -0.4959  -0.4957  -0.4827
    -0.4827  -0.4754  -0.4754  -0.4613  -0.4573  -0.4234  -0.4234  -0.4205
    -0.4205  -0.4205  -0.4128  -0.4128  -0.4042  -0.4042  -0.4039  -0.4012
    -0.4012  -0.3998  -0.3905  -0.3905  -0.3875  -0.3857  -0.3711  -0.3645
    -0.3635  -0.3635  -0.3626  -0.3562  -0.3562  -0.3507  -0.3507  -0.3479
    -0.3316  -0.3316  -0.3299  -0.3299  -0.3200  -0.3200  -0.3173  -0.3126
    -0.3047  -0.3037  -0.3037  -0.2942  -0.2942  -0.2842  -0.2842  -0.2828
    -0.2828  -0.2770  -0.2731  -0.2715  -0.2715  -0.2670  -0.2670  -0.2660
    -0.2536  -0.2488  -0.2488  -0.2457  -0.2392  -0.2364  -0.2364  -0.2310
    -0.2310  -0.2296  -0.1669  -0.1669  -0.1489  -0.1429  -0.1429  -0.1179
    -0.0669  -0.0040  -0.0040   0.0330   0.0330   0.0350   0.3349   0.3546
     0.3546   0.3860   0.9276   0.9336   0.9485   0.9485   0.9540   0.9540
     0.9867   1.0451   1.0451   1.1705   1.4411   1.4411   1.5154   1.5430
     1.5430   1.5470   1.5570   1.5570   1.8259   1.8259   1.9757   2.4204
     2.6332   2.6332   2.7185   2.7185   2.7481   2.7635   2.7635   2.8190
     2.8190   2.8334   2.8500   2.8500   2.8539   2.8563   2.9132   2.9132
     2.9625   2.9657   2.9657   3.0087   3.0087   3.0100   3.0243   3.0350
     3.0350   3.0519   3.1264   3.1264   3.2255   3.3141   3.3141   3.3460
     3.5332   3.5332   3.5914   3.8546   3.8546   4.2249   4.2291   4.2330
     4.2330   4.2338   4.2435   4.2435   4.3172   4.3172   4.3448   4.3689
     4.3689   4.4752   4.4752   4.5431   4.5431   4.5445   4.5445   4.5556
     4.5615   4.5680   4.5680   4.5888   4.5977   4.6515   4.6515   4.6857
     4.8249   5.2286   5.2286   5.3402   5.8073   5.8073   6.1370   6.1370
     6.1525   7.6616   8.2270   8.2270   8.6129   8.6833   8.6833   8.8042
     8.9002   8.9002   8.9315   9.1880   9.4767   9.4767   9.5090   9.7147
     9.7147   9.8384   9.8967   9.9203   9.9203  10.0212  10.0212  10.0319
    10.0357  10.0357  10.1342  10.1561  10.1561  10.1701  10.1830  10.1830
    10.2269  10.2269  10.2936  10.5611  10.5856  10.5856  10.9965  11.1767
    11.1767  11.1842  11.2451  11.2451  11.2817  11.2817  11.3386  11.5189
    11.6544  11.6544  11.8387  11.8574  11.8575  11.8981  11.9527  11.9531
    11.9551  12.0846

     occupation numbers
     1.0000   1.0000   1.0000   1.0000   1.0000   1.0000   1.0000   1.0000
     1.0000   1.0000   1.0000   1.0000   1.0000   1.0000   1.0000   1.0000
     1.0000   1.0000   1.0000   1.0000   1.0000   1.0000   1.0000   1.0000
     1.0000   1.0000   1.0000   1.0000   1.0000   1.0000   1.0000   1.0000
     1.0000   1.0000   1.0000   1.0000   1.0000   1.0000   1.0000   1.0000
     1.0000   1.0000   1.0000   1.0000   1.0000   1.0000   1.0000   1.0000
     1.0000   1.0000   1.0000   1.0000   1.0000   1.0000   1.0000   1.0000
     1.0000   1.0000   1.0000   1.0000   1.0000   1.0000   1.0000   1.0000
     1.0000   1.0000   1.0000   1.0000   1.0000   1.0000   1.0000   1.0000
     1.0000   1.0000   1.0000   1.0000   1.0000   1.0000   1.0000   1.0000
     1.0000   1.0000   1.0000   1.0000   1.0000   1.0000   1.0000   1.0000
     1.0000   1.0000   1.0000   1.0000   1.0000   1.0000   1.0000   1.0000
     1.0000   1.0000   1.0000   1.0000   1.0000   1.0000   1.0000   1.0000
     1.0000   1.0000   1.0000   1.0000   1.0000   1.0000   1.0000   1.0000
     1.0000   1.0000   1.0000   1.0000   1.0000   1.0000   1.0000   1.0000
     1.0000   1.0000   1.0000   1.0000   1.0000   1.0000   1.0000   1.0000
     1.0000   1.0000   1.0000   1.0000   1.0000   1.0000   1.0000   1.0000
     1.0000   1.0000   1.0000   1.0000   1.0000   1.0000   1.0000   1.0000
     1.0000   1.0000   1.0000   1.0000   1.0000   1.0000   1.0000   1.0000
     1.0000   1.0000   1.0000   1.0000   1.0000   1.0000   1.0000   1.0000
     1.0000   1.0000   1.0000   1.0000   1.0000   1.0000   1.0000   1.0000
     1.0000   1.0000   1.0000   1.0000   1.0000   1.0000   1.0000   1.0000
     1.0000   1.0000   1.0000   1.0000   1.0000   1.0000   1.0000   1.0000
     1.0000   1.0000   1.0000   1.0000   1.0000   1.0000   1.0000   1.0000
     1.0000   1.0000   1.0000   1.0000   1.0000   1.0000   1.0000   1.0000
     1.0000   1.0000   1.0000   1.0000   1.0000   1.0000   1.0000   1.0000
     1.0000   1.0000   1.0000   1.0000   1.0000   1.0000   1.0000   1.0000
     1.0000   1.0000   1.0000   1.0000   1.0000   1.0000   1.0000   1.0000
     1.0000   1.0000   1.0000   1.0000   1.0000   1.0000   1.0000   1.0000
     1.0000   1.0000   1.0000   1.0000   1.0000   1.0000   1.0000   1.0000
     1.0000   1.0000   1.0000   1.0000   1.0000   1.0000   1.0000   1.0000
     1.0000   1.0000   1.0000   1.0000   1.0000   1.0000   1.0000   1.0000
     1.0000   1.0000   1.0000   1.0000   1.0000   1.0000   1.0000   1.0000
     1.0000   1.0000   1.0000   1.0000   1.0000   1.0000   1.0000   1.0000
     1.0000   1.0000   1.0000   1.0000   1.0000   1.0000   1.0000   1.0000
     1.0000   1.0000   1.0000   1.0000   1.0000   1.0000   1.0000   1.0000
     1.0000   0.0000   0.0000   0.0000   0.0000   0.0000   0.0000   0.0000
     0.0000   0.0000   0.0000   0.0000   0.0000   0.0000   0.0000   0.0000
     0.0000   0.0000   0.0000   0.0000   0.0000   0.0000   0.0000   0.0000
     0.0000   0.0000   0.0000   0.0000   0.0000   0.0000   0.0000   0.0000
     0.0000   0.0000   0.0000   0.0000   0.0000   0.0000   0.0000   0.0000
     0.0000   0.0000   0.0000   0.0000   0.0000   0.0000   0.0000   0.0000
     0.0000   0.0000   0.0000   0.0000   0.0000   0.0000   0.0000   0.0000
     0.0000   0.0000

[...]

          k =-0.5000-0.5000-0.5000 (269968 PWs)   bands (ev):

[...]

 ------ SPIN DOWN ----------

[...]

          k =-0.2500 0.0000 0.2500 (269929 PWs)   bands (ev):

[...]

          k = 0.2500-0.2500-0.5000 (269988 PWs)   bands (ev):

   -86.1825 -49.6110 -49.6110 -49.4099  -7.3330  -7.2712  -7.0910  -7.0780
    -7.0461  -6.9937  -6.8979  -6.8116  -6.7229  -6.7133  -6.6852  -6.6634
    -6.6578  -6.6269  -6.5961  -6.5850  -6.5589  -6.5328  -6.5271  -6.5056
    -6.4898  -6.4780  -6.4714  -6.4509  -6.4428  -6.4160  -6.3943  -6.3750
    -6.3558  -6.3417  -6.3283  -0.8301  -0.8132  -0.8116  -0.8042  -0.7895
    -0.7861  -0.7834  -0.7769  -0.7728  -0.7624  -0.7607  -0.7602  -0.7555
    -0.7547  -0.7544  -0.7480  -0.7449  -0.7428  -0.7354  -0.7341  -0.7337
    -0.7320  -0.7237  -0.7199  -0.7183  -0.7148  -0.7115  -0.7089  -0.7040
    -0.7011  -0.6951  -0.6942  -0.6888  -0.6826  -0.6771  -0.6742  -0.6731
    -0.6714  -0.6668  -0.6629  -0.6619  -0.6547  -0.6520  -0.6501  -0.6488
    -0.6418  -0.6406  -0.6397  -0.6329  -0.6264  -0.6208  -0.6152  -0.6100
    -0.6081  -0.6008  -0.5947  -0.5899  -0.5879  -0.5838  -0.5793  -0.5768
    -0.5717  -0.5652  -0.5641  -0.5584  -0.5502  -0.5484  -0.5411  -0.5373
    -0.5289  -0.5245  -0.5150  -0.5131  -0.4998  -0.4916  -0.4808  -0.4781
    -0.4733  -0.4640  -0.4598  -0.4516  -0.4494  -0.4471  -0.4415  -0.4353
    -0.4250  -0.4193  -0.4119  -0.4095  -0.4064  -0.4016  -0.3997  -0.3952
    -0.3891  -0.3813  -0.3779  -0.3747  -0.3730  -0.3703  -0.3651  -0.3632
    -0.3574  -0.3560  -0.3510  -0.3500  -0.3446  -0.3430  -0.3421  -0.3412
    -0.3365  -0.3305  -0.3204  -0.3194  -0.3135  -0.3100  -0.3061  -0.2996
    -0.2955  -0.2934  -0.2888  -0.2852  -0.2846  -0.2802  -0.2791  -0.2762
    -0.2712  -0.2711  -0.2689  -0.2654  -0.2610  -0.2588  -0.2569  -0.2540
    -0.2524  -0.2495  -0.2438  -0.2403  -0.2350  -0.2329  -0.2280  -0.2137
    -0.2076  -0.1709  -0.1644  -0.1603  -0.1464  -0.1347  -0.1098  -0.1058
    -0.0985  -0.0849  -0.0697  -0.0570  -0.0458  -0.0387   0.6067   0.6728
     0.6944   0.8238   0.8508   0.8823   0.9190   0.9518   0.9580   0.9925
     1.0111   1.0329   1.0588   1.0764   1.0868   1.1294   1.2148   1.3256
     1.4056   1.5145   1.5937   1.6351   1.6559   1.7586   1.8848   1.9880
     2.3276   2.5579   2.6050   2.6221   2.6346   2.6446   2.6797   2.7652
     2.8034   2.8171   2.8255   2.8766   2.8949   2.9601   2.9954   3.0269
     3.2576   3.2742   3.3684   3.3992   3.4193   3.4532   3.4850   3.4983
     3.5217   3.5418   3.5648   3.5996   3.6185   3.6489   3.6569   3.6821
     3.7039   3.7088   3.7240   3.7421   3.7824   3.8135   3.8216   3.8472
     3.8651   3.9312   3.9436   3.9907   4.0441   4.0979   4.1231   4.1682
     4.2415   4.2437   4.2544   4.3062   4.3681   4.4119   4.4345   4.4529
     4.4909   4.5720   4.7260   4.7776   4.8227   4.8624   4.9038   4.9572
     4.9924   5.0166   5.1187   5.2397   6.7848   6.7978   7.0235   7.6512
     7.7184   8.1897   8.2285   8.7573   8.9512   9.0010   9.0496   9.1024
     9.2535   9.3319   9.4153   9.5044   9.5512   9.5870   9.6063   9.6405
     9.6578   9.7036   9.7357   9.7836   9.8196   9.8587   9.8942   9.9025
     9.9202   9.9860  10.0132  10.0272  10.0803  10.1125  10.1531  10.2390
    10.3327  10.3759  10.4523  10.5218  10.6202  10.6927  10.7448  10.7783
    10.8572  10.9496  11.0269  11.1075  11.1418  11.2344  11.3409  11.3631
    11.3983  11.4756  11.5087  11.5536  11.5707  11.6043  11.6234  11.6340
    11.6369  11.6867

     occupation numbers
     1.0000   1.0000   1.0000   1.0000   1.0000   1.0000   1.0000   1.0000
     1.0000   1.0000   1.0000   1.0000   1.0000   1.0000   1.0000   1.0000
     1.0000   1.0000   1.0000   1.0000   1.0000   1.0000   1.0000   1.0000
     1.0000   1.0000   1.0000   1.0000   1.0000   1.0000   1.0000   1.0000
     1.0000   1.0000   1.0000   1.0000   1.0000   1.0000   1.0000   1.0000
     1.0000   1.0000   1.0000   1.0000   1.0000   1.0000   1.0000   1.0000
     1.0000   1.0000   1.0000   1.0000   1.0000   1.0000   1.0000   1.0000
     1.0000   1.0000   1.0000   1.0000   1.0000   1.0000   1.0000   1.0000
     1.0000   1.0000   1.0000   1.0000   1.0000   1.0000   1.0000   1.0000
     1.0000   1.0000   1.0000   1.0000   1.0000   1.0000   1.0000   1.0000
     1.0000   1.0000   1.0000   1.0000   1.0000   1.0000   1.0000   1.0000
     1.0000   1.0000   1.0000   1.0000   1.0000   1.0000   1.0000   1.0000
     1.0000   1.0000   1.0000   1.0000   1.0000   1.0000   1.0000   1.0000
     1.0000   1.0000   1.0000   1.0000   1.0000   1.0000   1.0000   1.0000
     1.0000   1.0000   1.0000   1.0000   1.0000   1.0000   1.0000   1.0000
     1.0000   1.0000   1.0000   1.0000   1.0000   1.0000   1.0000   1.0000
     1.0000   1.0000   1.0000   1.0000   1.0000   1.0000   1.0000   1.0000
     1.0000   1.0000   1.0000   1.0000   1.0000   1.0000   1.0000   1.0000
     1.0000   1.0000   1.0000   1.0000   1.0000   1.0000   1.0000   1.0000
     1.0000   1.0000   1.0000   1.0000   1.0000   1.0000   1.0000   1.0000
     1.0000   1.0000   1.0000   1.0000   1.0000   1.0000   1.0000   1.0000
     1.0000   1.0000   1.0000   1.0000   1.0000   1.0000   1.0000   1.0000
     1.0000   1.0000   1.0000   1.0000   1.0000   1.0000   1.0000   1.0000
     1.0000   1.0000   1.0000   1.0000   1.0000   1.0000   1.0000   1.0000
     1.0000   1.0000   1.0000   1.0000   1.0000   1.0000   1.0000   1.0000
     1.0000   1.0000   1.0000   1.0000   1.0000   1.0000   1.0000   1.0000
     1.0000   1.0000   1.0000   1.0000   1.0000   1.0000   1.0000   1.0000
     1.0000   1.0000   1.0000   1.0000   1.0000   1.0000   1.0000   1.0000
     1.0000   1.0000   1.0000   1.0000   1.0000   1.0000   1.0000   1.0000
     1.0000   1.0000   1.0000   1.0000   1.0000   1.0000   1.0000   1.0000
     1.0000   1.0000   1.0000   1.0000   1.0000   1.0000   1.0000   1.0000
     1.0000   1.0000   1.0000   1.0000   1.0000   1.0000   1.0000   1.0000
     1.0000   1.0000   1.0000   1.0000   1.0000   1.0000   1.0000   1.0000
     1.0000   1.0000   1.0000   1.0000   1.0000   1.0000   1.0000   1.0000
     1.0000   1.0000   1.0000   1.0000   1.0000   1.0000   1.0000   1.0000
     1.0000   1.0000   1.0000   1.0000   1.0000   1.0000   1.0000   0.0000
     0.0000   0.0000   0.0000   0.0000   0.0000   0.0000   0.0000   0.0000
     0.0000   0.0000   0.0000   0.0000   0.0000   0.0000   0.0000   0.0000
     0.0000   0.0000   0.0000   0.0000   0.0000   0.0000   0.0000   0.0000
     0.0000   0.0000   0.0000   0.0000   0.0000   0.0000   0.0000   0.0000
     0.0000   0.0000   0.0000   0.0000   0.0000   0.0000   0.0000   0.0000
     0.0000   0.0000   0.0000   0.0000   0.0000   0.0000   0.0000   0.0000
     0.0000   0.0000   0.0000   0.0000   0.0000   0.0000   0.0000   0.0000
     0.0000   0.0000

     the Fermi energy is     7.5198 ev

!    total energy              =   -9990.21474154 Ry
     total all-electron energy =   -138895.835532 Ry
     estimated scf accuracy    <          4.5E-09 Ry
     smearing contrib. (-TS)   =      -0.00000000 Ry
     internal energy E=F+TS    =   -9990.21474154 Ry

     The total energy is F=E-TS. E is the sum of the following terms:
     one-electron contribution =   -2944.81478970 Ry
     hartree contribution      =    2041.25662357 Ry
     xc contribution           =   -1653.25133718 Ry
     ewald contribution        =   -2957.73012880 Ry
     one-center paw contrib.   =   -4475.67510943 Ry
      -> PAW hartree energy AE =     123.08288614 Ry
      -> PAW hartree energy PS =    -122.44040103 Ry
      -> PAW xc energy AE      =    -143.19711450 Ry
      -> PAW xc energy PS      =      47.13571905 Ry
      -> total E_H with PAW    =    2041.89910868 Ry
      -> total E_XC with PAW   =   -1749.31273263 Ry

     total magnetization       =     2.00 Bohr mag/cell
     absolute magnetization    =     2.17 Bohr mag/cell

     convergence has been achieved in  17 iterations

     Writing all to output data dir ./out/Co_qn1.save/

     General routines

     Parallel routines

     PAW routines

   This run was terminated on:   3:50:22   7Jul2024

   JOB DONE.