     Program PWSCF v.7.2 starts on 25Jul2024 at  9:16:33

     Reading input from 1.Cu_vac_in_ZnS.scf.qp1.unrlxd.U7.in

     Current dimensions of program PWSCF are:
     Max number of different atomic species (ntypx) = 10
     Max number of k-points (npk) =  40000
     Max angular momentum in pseudopotentials (lmaxx) =  4
     file S.pbe-n-kjpaw_psl.1.0.0.UPF: wavefunction(s)  3S 3P renormalized
     file Zn.pbe-dnl-kjpaw_psl.1.0.0.UPF: wavefunction(s)  4S 3D renormalized
     file Cu.pbe-spn-kjpaw_psl.1.0.0.UPF: wavefunction(s)  4S 3P 3D renormalized

     K-points division:     npool     =      13
     R & G space division:  proc/nbgrp/npool/nimage =     112
     Subspace diagonalization in iterative solution of the eigenvalue problem:
     one sub-group per band group will be used

     Using Slab Decomposition

     bravais-lattice index     =            1
     lattice parameter (alat)  =      20.5686  a.u.
     unit-cell volume          =    8701.8437 (a.u.)^3
     number of atoms/cell      =           63
     number of atomic types    =            3
     number of electrons       =       576.00
     number of Kohn-Sham states=          346
     kinetic-energy cutoff     =     150.0000  Ry
     charge density cutoff     =     600.0000  Ry
     scf convergence threshold =      1.0E-08
     mixing beta               =       0.7000
     number of iterations used =            8  plain     mixing
     Exchange-correlation= SLA  PW   PBX  PBC
                           (   1   4   3   4   0   0   0)
     Hubbard projectors: ortho-atomic
     Hubbard parameters of DFT+U (Dudarev formulation) in eV:
     U(Zn-3d) =  7.0000
     U(Cu-3d) =  7.0000

     Internal variables: lda_plus_u = T, lda_plus_u_kind = 0

     celldm(1)=  20.568554  celldm(2)=   0.000000  celldm(3)=   0.000000
     celldm(4)=   0.000000  celldm(5)=   0.000000  celldm(6)=   0.000000

     crystal axes: (cart. coord. in units of alat)
               a(1) = (   1.000000   0.000000   0.000000 )
               a(2) = (   0.000000   1.000000   0.000000 )
               a(3) = (   0.000000   0.000000   1.000000 )

     reciprocal axes: (cart. coord. in units 2 pi/alat)
               b(1) = (  1.000000  0.000000  0.000000 )
               b(2) = (  0.000000  1.000000  0.000000 )
               b(3) = (  0.000000  0.000000  1.000000 )

     PseudoPot. # 1 for S  read from file:
     /arf/home/amuhaymin/pseudo/S.pbe-n-kjpaw_psl.1.0.0.UPF
     MD5 check sum: fb45dfebcf3e72a4e1bd4a866ec2e262
     Pseudo is Projector augmented-wave + core cor, Zval =  6.0
     Generated using &quot;atomic&quot; code by A. Dal Corso  v.6.3
     Shape of augmentation charge: PSQ
     Using radial grid of 1151 points,  6 beta functions with:
                l(1) =   0
                l(2) =   0
                l(3) =   1
                l(4) =   1
                l(5) =   2
                l(6) =   2
     Q(r) pseudized with 0 coefficients

     PseudoPot. # 2 for Zn read from file:
     /arf/home/amuhaymin/pseudo/Zn.pbe-dnl-kjpaw_psl.1.0.0.UPF
     MD5 check sum: c608214d9520ac179f507641260889e3
     Pseudo is Projector augmented-wave + core cor, Zval = 12.0
     Generated using &quot;atomic&quot; code by A. Dal Corso  v.6.2.2
     Shape of augmentation charge: PSQ
     Using radial grid of 1201 points,  6 beta functions with:
                l(1) =   0
                l(2) =   0
                l(3) =   1
                l(4) =   1
                l(5) =   2
                l(6) =   2
     Q(r) pseudized with 0 coefficients

     PseudoPot. # 3 for Cu read from file:
     /arf/home/amuhaymin/pseudo/Cu.pbe-spn-kjpaw_psl.1.0.0.UPF
     MD5 check sum: e7cbaad2f97193e5fe23251a619a52b0
     Pseudo is Projector augmented-wave + core cor, Zval = 19.0
     Generated using &quot;atomic&quot; code by A. Dal Corso  v.6.3
     Shape of augmentation charge: PSQ
     Using radial grid of 1199 points,  6 beta functions with:
                l(1) =   0
                l(2) =   0
                l(3) =   1
                l(4) =   1
                l(5) =   2
                l(6) =   2
     Q(r) pseudized with 0 coefficients

     atomic species   valence    mass     pseudopotential
        S              6.00    32.06500     S ( 1.00)
        Zn            12.00    65.38000     Zn( 1.00)
        Cu            19.00    63.54600     Cu( 1.00)

     Starting magnetic structure
     atomic species   magnetization
        S            0.000
        Zn           0.000
        Cu           0.000

      6 Sym. Ops. (no inversion) found

                                    s                        frac. trans.

      isym =  1     identity

 cryst.   s( 1) = (     1          0          0      )
                  (     0          1          0      )
                  (     0          0          1      )

 cart.    s( 1) = (  1.0000000  0.0000000  0.0000000 )
                  (  0.0000000  1.0000000  0.0000000 )
                  (  0.0000000  0.0000000  1.0000000 )

      isym =  2     120 deg rotation - cart. axis [-1,-1,-1]

[...]

      isym =  3     120 deg rotation - cart. axis [1,1,1]

[...]

      isym =  4     inv. 180 deg rotation - cart. axis [1,-1,0]

[...]

      isym =  6     inv. 180 deg rotation - cart. axis [0,1,-1]

 cryst.   s( 6) = (     1          0          0      )
                  (     0          0          1      )
                  (     0          1          0      )

 cart.    s( 6) = (  1.0000000  0.0000000  0.0000000 )
                  (  0.0000000  0.0000000  1.0000000 )
                  (  0.0000000  1.0000000  0.0000000 )

     point group C_3v (3m)
     there are  3 classes
     the character table:

       E     2C3   3s_v
A_1    1.00  1.00  1.00
A_2    1.00  1.00 -1.00
E      2.00 -1.00  0.00

     the symmetry operations in each class and the name of the first element:

     E        1
          identity
     2C3      2    3
          120 deg rotation - cart. axis [-1,-1,-1]
     3s_v     4    5    6
          inv. 180 deg rotation - cart. axis [1,-1,0]

   Cartesian axes

     site n.     atom                  positions (alat units)
         1           Zn  tau(   1) = (   0.0000000   0.0000000   0.0000000  )
         2           Zn  tau(   2) = (   0.0000000   0.2500000   0.2500000  )
         3           Zn  tau(   3) = (   0.2500000   0.0000000   0.2500000  )
         4           Zn  tau(   4) = (   0.2500000   0.2500000   0.0000000  )
         5           S   tau(   5) = (   0.1250000   0.3750000   0.3750000  )
         6           S   tau(   6) = (   0.1250000   0.1250000   0.1250000  )
         7           S   tau(   7) = (   0.3750000   0.3750000   0.1250000  )
         8           S   tau(   8) = (   0.3750000   0.1250000   0.3750000  )
         9           Zn  tau(   9) = (   0.0000000   0.0000000   0.5000000  )
        10           Zn  tau(  10) = (   0.0000000   0.2500000   0.7500000  )
        11           Zn  tau(  11) = (   0.2500000   0.0000000   0.7500000  )
        12           Zn  tau(  12) = (   0.2500000   0.2500000   0.5000000  )
        13           S   tau(  13) = (   0.1250000   0.3750000   0.8750000  )
        14           S   tau(  14) = (   0.1250000   0.1250000   0.6250000  )
        15           S   tau(  15) = (   0.3750000   0.3750000   0.6250000  )
        16           S   tau(  16) = (   0.3750000   0.1250000   0.8750000  )
        17           Zn  tau(  17) = (   0.0000000   0.5000000   0.0000000  )
        18           Zn  tau(  18) = (   0.0000000   0.7500000   0.2500000  )
        19           Zn  tau(  19) = (   0.2500000   0.5000000   0.2500000  )
        20           Zn  tau(  20) = (   0.2500000   0.7500000   0.0000000  )
        21           S   tau(  21) = (   0.1250000   0.8750000   0.3750000  )
        22           S   tau(  22) = (   0.1250000   0.6250000   0.1250000  )
        23           S   tau(  23) = (   0.3750000   0.8750000   0.1250000  )
        24           S   tau(  24) = (   0.3750000   0.6250000   0.3750000  )
        25           Zn  tau(  25) = (   0.0000000   0.5000000   0.5000000  )
        26           Zn  tau(  26) = (   0.0000000   0.7500000   0.7500000  )
        27           Zn  tau(  27) = (   0.2500000   0.5000000   0.7500000  )
        28           Zn  tau(  28) = (   0.2500000   0.7500000   0.5000000  )
        29           S   tau(  29) = (   0.1250000   0.8750000   0.8750000  )
        30           S   tau(  30) = (   0.1250000   0.6250000   0.6250000  )
        31           S   tau(  31) = (   0.3750000   0.8750000   0.6250000  )
        32           S   tau(  32) = (   0.3750000   0.6250000   0.8750000  )
        33           Zn  tau(  33) = (   0.5000000   0.0000000   0.0000000  )
        34           Zn  tau(  34) = (   0.5000000   0.2500000   0.2500000  )
        35           Zn  tau(  35) = (   0.7500000   0.0000000   0.2500000  )
        36           Zn  tau(  36) = (   0.7500000   0.2500000   0.0000000  )
        37           S   tau(  37) = (   0.6250000   0.3750000   0.3750000  )
        38           S   tau(  38) = (   0.6250000   0.1250000   0.1250000  )
        39           S   tau(  39) = (   0.8750000   0.3750000   0.1250000  )
        40           S   tau(  40) = (   0.8750000   0.1250000   0.3750000  )
        41           Zn  tau(  41) = (   0.5000000   0.0000000   0.5000000  )
        42           Zn  tau(  42) = (   0.5000000   0.2500000   0.7500000  )
        43           Zn  tau(  43) = (   0.7500000   0.0000000   0.7500000  )
        44           Zn  tau(  44) = (   0.7500000   0.2500000   0.5000000  )
        45           S   tau(  45) = (   0.6250000   0.3750000   0.8750000  )
        46           S   tau(  46) = (   0.6250000   0.1250000   0.6250000  )
        47           S   tau(  47) = (   0.8750000   0.3750000   0.6250000  )
        48           S   tau(  48) = (   0.8750000   0.1250000   0.8750000  )
        49           Zn  tau(  49) = (   0.5000000   0.5000000   0.0000000  )
        50           Zn  tau(  50) = (   0.5000000   0.7500000   0.2500000  )
        51           Zn  tau(  51) = (   0.7500000   0.5000000   0.2500000  )
        52           Zn  tau(  52) = (   0.7500000   0.7500000   0.0000000  )
        53           S   tau(  53) = (   0.6250000   0.8750000   0.3750000  )
        54           S   tau(  54) = (   0.6250000   0.6250000   0.1250000  )
        55           S   tau(  55) = (   0.8750000   0.8750000   0.1250000  )
        56           S   tau(  56) = (   0.8750000   0.6250000   0.3750000  )
        57           Cu  tau(  57) = (   0.5000000   0.5000000   0.5000000  )
        58           Zn  tau(  58) = (   0.5000000   0.7500000   0.7500000  )
        59           Zn  tau(  59) = (   0.7500000   0.5000000   0.7500000  )
        60           Zn  tau(  60) = (   0.7500000   0.7500000   0.5000000  )
        61           S   tau(  61) = (   0.6250000   0.8750000   0.8750000  )
        62           S   tau(  62) = (   0.8750000   0.8750000   0.6250000  )
        63           S   tau(  63) = (   0.8750000   0.6250000   0.8750000  )

   Crystallographic axes

     site n.     atom                  positions (cryst. coord.)
         1           Zn  tau(   1) = (  0.0000000  0.0000000  0.0000000  )
[...]
     atom  29 (R=0.089)  charge=  3.9905  magn= -0.0000
     atom  30 (R=0.089)  charge=  3.9910  magn=  0.0000
     atom  31 (R=0.089)  charge=  3.9829  magn=  0.0000
     atom  32 (R=0.089)  charge=  3.9829  magn=  0.0000
     atom  33 (R=0.089)  charge= 10.1706  magn=  0.0000
     atom  34 (R=0.089)  charge= 10.1690  magn= -0.0000
     atom  35 (R=0.089)  charge= 10.1693  magn=  0.0000
     atom  36 (R=0.089)  charge= 10.1693  magn=  0.0000
     atom  37 (R=0.089)  charge=  3.9715  magn=  0.0000
     atom  38 (R=0.089)  charge=  3.9864  magn= -0.0000
     atom  39 (R=0.089)  charge=  3.9908  magn= -0.0000
     atom  40 (R=0.089)  charge=  3.9908  magn= -0.0000
     atom  41 (R=0.089)  charge= 10.1713  magn= -0.0000
     atom  42 (R=0.089)  charge= 10.1717  magn= -0.0000
     atom  43 (R=0.089)  charge= 10.1722  magn= -0.0000
     atom  44 (R=0.089)  charge= 10.1717  magn= -0.0000
     atom  45 (R=0.089)  charge=  3.9829  magn=  0.0000
     atom  46 (R=0.089)  charge=  3.9910  magn=  0.0000
     atom  47 (R=0.089)  charge=  3.9829  magn=  0.0000
     atom  48 (R=0.089)  charge=  3.9905  magn= -0.0000
     atom  49 (R=0.089)  charge= 10.1713  magn= -0.0000
     atom  50 (R=0.089)  charge= 10.1717  magn= -0.0000
     atom  51 (R=0.089)  charge= 10.1717  magn= -0.0000
     atom  52 (R=0.089)  charge= 10.1722  magn= -0.0000
     atom  53 (R=0.089)  charge=  3.9829  magn=  0.0000
     atom  54 (R=0.089)  charge=  3.9910  magn=  0.0000
     atom  55 (R=0.089)  charge=  3.9905  magn= -0.0000
     atom  56 (R=0.089)  charge=  3.9829  magn=  0.0000
     atom  57 (R=0.089)  charge= 17.4178  magn=  0.0000
     atom  58 (R=0.089)  charge= 10.1328  magn= -0.0000
     atom  59 (R=0.089)  charge= 10.1328  magn= -0.0000
     atom  60 (R=0.089)  charge= 10.1328  magn= -0.0000
     atom  61 (R=0.089)  charge=  3.9825  magn= -0.0000
     atom  62 (R=0.089)  charge=  3.9825  magn= -0.0000
     atom  63 (R=0.089)  charge=  3.9825  magn= -0.0000

     End of self-consistent calculation

 ------ SPIN UP ------------

          k = 0.0000 0.0000 0.0000 (269825 PWs)   bands (ev):

  -103.9413 -61.4546 -61.3186 -61.3186  -7.6108  -7.2905  -7.2905  -7.2585
    -7.1924  -7.1924  -7.1437  -7.1437  -7.1031  -7.0551  -6.9558  -6.9086
    -6.9086  -6.8897  -6.8897  -6.8451  -6.8272  -6.8272  -6.8164  -6.8164
    -6.7954  -6.7599  -6.6989  -6.6989  -6.6570  -6.5980  -6.5980  -6.5978
    -6.4329  -6.3082  -6.3082  -4.4322  -4.4020  -4.4020  -4.3988  -4.3844
    -4.3844  -4.3722  -4.3722  -4.3544  -4.3060  -4.2989  -4.2989  -4.2928
    -4.2928  -4.2858  -3.7715  -3.7715  -3.7567  -3.7445  -3.7322  -3.7322
    -3.7275  -3.7230  -3.7230  -3.7116  -3.7116  -3.7068  -3.7068  -3.7059
    -3.6990  -3.6925  -3.6925  -3.6891  -3.6863  -3.6853  -3.6853  -3.6820
    -3.6793  -3.6793  -3.6713  -3.6577  -3.6577  -3.6437  -3.6437  -3.6400
    -3.6381  -3.6381  -3.6265  -3.6265  -3.6251  -3.6184  -3.6173  -3.6173
    -3.6119  -3.6119  -3.6085  -3.6060  -3.6002  -3.6002  -3.5933  -3.5876
    -3.5876  -3.5847  -3.5847  -3.5823  -3.5770  -3.5626  -3.5621  -3.5563
    -3.5563  -3.5515  -3.5515  -3.5491  -3.5483  -3.5483  -3.5455  -3.5414
    -3.5414  -3.5400  -3.5389  -3.5389  -3.5378  -3.5277  -3.5277  -3.5244
    -3.5227  -3.5227  -3.5086  -3.5086  -3.5056  -3.4998  -3.4854  -3.4851
    -3.4851  -3.4848  -3.4784  -3.4784  -3.4638  -3.4638  -3.4555  -3.4555
    -3.4417  -3.4417  -3.4323  -3.4302  -3.4302  -3.4212  -3.4185  -3.3950
    -3.3950  -3.3898  -3.3879  -3.3879  -3.3731  -3.3731  -3.3687  -3.3683
    -3.3683  -3.3678  -3.3537  -3.3537  -3.3508  -3.3490  -3.3490  -3.3454
    -3.3454  -3.3426  -3.3372  -3.3250  -3.3250  -3.3090  -3.2379  -3.2379
    -3.2274  -3.1870  -3.1756  -3.1756  -3.1531  -3.1531  -3.1309  -3.1309
    -3.1157  -3.0477  -3.0428  -3.0428  -3.0126  -2.9806  -2.9806  -2.9226
    -2.8197  -2.8121  -2.8121  -2.8040  -2.7789  -2.7789   0.2357   0.3193
     0.3431   0.3431   0.6588   0.6588   0.6697   0.7875   0.8738   0.8738
     0.9093   0.9271   0.9271   1.1366   1.1926   1.1926   1.2675   1.2675
     1.3265   1.3417   1.3417   1.3447   1.4124   1.4124   1.7997   1.9011
     1.9011   1.9995   1.9995   2.2586   2.4112   2.5037   2.5277   2.5277
     2.5634   2.5698   2.5698   2.6565   2.6565   2.6852   2.6852   2.7101
     2.7180   2.7180   2.7457   2.8355   2.8426   2.8601   2.8601   2.8624
     2.8624   2.9061   3.0138   3.0138   3.0158   3.0372   3.0372   3.1635
     3.1635   3.1825   3.2055   3.2871   3.2871   3.5275   3.5275   3.6476
     4.0201   4.0326   4.0326   4.0665   4.1074   4.1074   4.1537   4.1537
     4.1610   4.2308   4.2705   4.2705   4.2887   4.3080   4.3080   4.3417
     4.3417   4.3816   4.4706   4.4706   4.4787   4.4853   4.5015   4.5015
     4.5724   4.6309   4.6309   4.8855   4.8855   5.1862   5.3566   5.3566
     5.7488   7.7774   8.0070   8.0070   8.7731   8.7855   8.7855   8.8679
     8.9475   8.9475   9.0537   9.2827   9.5532   9.5727   9.5727   9.9098
     9.9098   9.9786  10.0010  10.0010  10.0559  10.0563  10.0563  10.0917
    10.0986  10.0986  10.2199  10.2199  10.2362  10.2523  10.2620  10.2620
    10.2793  10.2793  10.3256  10.6077  10.6077  10.7296  11.1220  11.1769
    11.1769  11.2243  11.2243  11.3602  11.3939  11.3939  11.4087  11.6687
    11.6991  11.6991  11.8966  11.8992  11.8992  11.9095  12.0880  12.0886
    12.0893  12.1169

     occupation numbers
     1.0000   1.0000   1.0000   1.0000   1.0000   1.0000   1.0000   1.0000
     1.0000   1.0000   1.0000   1.0000   1.0000   1.0000   1.0000   1.0000
     1.0000   1.0000   1.0000   1.0000   1.0000   1.0000   1.0000   1.0000
     1.0000   1.0000   1.0000   1.0000   1.0000   1.0000   1.0000   1.0000
     1.0000   1.0000   1.0000   1.0000   1.0000   1.0000   1.0000   1.0000
     1.0000   1.0000   1.0000   1.0000   1.0000   1.0000   1.0000   1.0000
     1.0000   1.0000   1.0000   1.0000   1.0000   1.0000   1.0000   1.0000
     1.0000   1.0000   1.0000   1.0000   1.0000   1.0000   1.0000   1.0000
     1.0000   1.0000   1.0000   1.0000   1.0000   1.0000   1.0000   1.0000
     1.0000   1.0000   1.0000   1.0000   1.0000   1.0000   1.0000   1.0000
     1.0000   1.0000   1.0000   1.0000   1.0000   1.0000   1.0000   1.0000
     1.0000   1.0000   1.0000   1.0000   1.0000   1.0000   1.0000   1.0000
     1.0000   1.0000   1.0000   1.0000   1.0000   1.0000   1.0000   1.0000
     1.0000   1.0000   1.0000   1.0000   1.0000   1.0000   1.0000   1.0000
     1.0000   1.0000   1.0000   1.0000   1.0000   1.0000   1.0000   1.0000
     1.0000   1.0000   1.0000   1.0000   1.0000   1.0000   1.0000   1.0000
     1.0000   1.0000   1.0000   1.0000   1.0000   1.0000   1.0000   1.0000
     1.0000   1.0000   1.0000   1.0000   1.0000   1.0000   1.0000   1.0000
     1.0000   1.0000   1.0000   1.0000   1.0000   1.0000   1.0000   1.0000
     1.0000   1.0000   1.0000   1.0000   1.0000   1.0000   1.0000   1.0000
     1.0000   1.0000   1.0000   1.0000   1.0000   1.0000   1.0000   1.0000
     1.0000   1.0000   1.0000   1.0000   1.0000   1.0000   1.0000   1.0000
     1.0000   1.0000   1.0000   1.0000   1.0000   1.0000   1.0000   1.0000
     1.0000   1.0000   1.0000   1.0000   1.0000   1.0000   1.0000   1.0000
     1.0000   1.0000   1.0000   1.0000   1.0000   1.0000   1.0000   1.0000
     1.0000   1.0000   1.0000   1.0000   1.0000   1.0000   1.0000   1.0000
     1.0000   1.0000   1.0000   1.0000   1.0000   1.0000   1.0000   1.0000
     1.0000   1.0000   1.0000   1.0000   1.0000   1.0000   1.0000   1.0000
     1.0000   1.0000   1.0000   1.0000   1.0000   1.0000   1.0000   1.0000
     1.0000   1.0000   1.0000   1.0000   1.0000   1.0000   1.0000   1.0000
     1.0000   1.0000   1.0000   1.0000   1.0000   1.0000   1.0000   1.0000
     1.0000   1.0000   1.0000   1.0000   1.0000   1.0000   1.0000   1.0000
     1.0000   1.0000   1.0000   1.0000   1.0000   1.0000   1.0000   1.0000
     1.0000   1.0000   1.0000   1.0000   1.0000   1.0000   1.0000   1.0000
     1.0000   1.0000   1.0000   1.0000   1.0000   1.0000   1.0000   1.0000
     1.0000   1.0000   1.0000   1.0000   1.0000   1.0000   1.0000   1.0000
     0.0000   0.0000   0.0000   0.0000   0.0000   0.0000   0.0000   0.0000
     0.0000   0.0000   0.0000   0.0000   0.0000   0.0000   0.0000   0.0000
     0.0000   0.0000   0.0000   0.0000   0.0000   0.0000   0.0000   0.0000
     0.0000   0.0000   0.0000   0.0000   0.0000   0.0000   0.0000   0.0000
     0.0000   0.0000   0.0000   0.0000   0.0000   0.0000   0.0000   0.0000
     0.0000   0.0000   0.0000   0.0000   0.0000   0.0000   0.0000   0.0000
     0.0000   0.0000   0.0000   0.0000   0.0000   0.0000   0.0000   0.0000
     0.0000   0.0000

[...]

          k =-0.5000-0.5000-0.5000 (269968 PWs)   bands (ev):

[...]

 ------ SPIN DOWN ----------

[...]

          k =-0.2500 0.0000 0.2500 (269929 PWs)   bands (ev):

[...]

          k = 0.2500-0.2500-0.5000 (269988 PWs)   bands (ev):

  -103.9413 -61.4546 -61.3186 -61.3186  -7.4984  -7.4101  -7.3316  -7.2941
    -7.2436  -7.1987  -7.1280  -7.0865  -7.0673  -7.0648  -6.9943  -6.9544
    -6.9359  -6.8831  -6.8502  -6.8339  -6.8166  -6.8068  -6.7785  -6.7689
    -6.7568  -6.7154  -6.6984  -6.6832  -6.6653  -6.6433  -6.6307  -6.6212
    -6.4228  -6.3178  -6.3143  -4.4318  -4.4018  -4.4017  -4.3972  -4.3843
    -4.3842  -4.3722  -4.3719  -4.3548  -4.3064  -4.2987  -4.2984  -4.2921
    -4.2917  -4.2867  -3.7666  -3.7649  -3.7502  -3.7448  -3.7390  -3.7339
    -3.7307  -3.7278  -3.7243  -3.7159  -3.7138  -3.7119  -3.7088  -3.7082
    -3.7005  -3.6971  -3.6927  -3.6891  -3.6865  -3.6814  -3.6773  -3.6728
    -3.6692  -3.6662  -3.6625  -3.6555  -3.6523  -3.6491  -3.6483  -3.6421
    -3.6412  -3.6354  -3.6330  -3.6289  -3.6259  -3.6239  -3.6186  -3.6131
    -3.6117  -3.6080  -3.6047  -3.6034  -3.6008  -3.5975  -3.5936  -3.5901
    -3.5896  -3.5864  -3.5815  -3.5778  -3.5749  -3.5733  -3.5713  -3.5675
    -3.5620  -3.5602  -3.5584  -3.5548  -3.5519  -3.5502  -3.5494  -3.5446
    -3.5399  -3.5360  -3.5340  -3.5302  -3.5274  -3.5262  -3.5229  -3.5188
    -3.5117  -3.5110  -3.5105  -3.5082  -3.5054  -3.4997  -3.4897  -3.4867
    -3.4780  -3.4765  -3.4744  -3.4731  -3.4667  -3.4661  -3.4532  -3.4520
    -3.4472  -3.4448  -3.4429  -3.4387  -3.4333  -3.4251  -3.4080  -3.3994
    -3.3989  -3.3910  -3.3862  -3.3844  -3.3827  -3.3767  -3.3703  -3.3631
    -3.3601  -3.3563  -3.3555  -3.3524  -3.3500  -3.3469  -3.3460  -3.3362
    -3.3353  -3.3327  -3.3306  -3.3290  -3.3264  -3.3130  -3.3071  -3.2742
    -3.2403  -3.2242  -3.1971  -3.1590  -3.1303  -3.1161  -3.0879  -3.0544
    -3.0434  -3.0347  -2.9976  -2.9935  -2.9743  -2.9465  -2.9389  -2.9285
    -2.9033  -2.8854  -2.8735  -2.8601  -2.8388  -2.8342   0.4423   0.5472
     0.6086   0.7094   0.7425   0.7553   0.7831   0.7879   0.8132   0.8281
     0.8385   0.8585   0.8830   0.9060   0.9192   0.9516   0.9768   1.1143
     1.1260   1.2313   1.2737   1.3243   1.3623   1.4159   1.4938   1.7919
     1.8448   2.0143   2.0395   2.0692   2.1547   2.2782   2.3890   2.4467
     2.4630   2.4927   2.5452   2.5856   2.6297   2.6597   2.7006   2.7412
     2.7913   2.8293   2.8851   2.9160   3.0052   3.1463   3.2043   3.2203
     3.2699   3.3110   3.3383   3.3570   3.3784   3.4374   3.4397   3.4667
     3.4751   3.5008   3.5185   3.5301   3.5619   3.5869   3.6037   3.6295
     3.6508   3.6976   3.7036   3.7567   3.7794   3.8039   3.8808   3.9000
     3.9499   3.9847   4.0230   4.0388   4.0959   4.1256   4.1378   4.2057
     4.2476   4.2884   4.3097   4.3365   4.3998   4.4876   4.6001   4.6727
     4.7135   4.7395   4.7956   4.8598   4.8943   4.9215   5.1385   5.2249
     6.0300   7.7712   7.8742   8.7622   8.9503   9.0790   9.1356   9.1780
     9.3860   9.4195   9.4806   9.5242   9.5780   9.6207   9.6438   9.6584
     9.6846   9.7557   9.7897   9.8399   9.8606   9.8912   9.9144   9.9925
    10.0028  10.0303  10.0822  10.1155  10.1434  10.1897  10.2229  10.3228
    10.3932  10.3988  10.4514  10.5980  10.7131  10.7699  10.8181  10.8424
    10.8815  10.9924  11.0530  11.1709  11.2651  11.3334  11.3450  11.4069
    11.4838  11.5314  11.5392  11.5462  11.6186  11.6242  11.6488  11.6726
    11.6841  11.7137

     occupation numbers
     1.0000   1.0000   1.0000   1.0000   1.0000   1.0000   1.0000   1.0000
     1.0000   1.0000   1.0000   1.0000   1.0000   1.0000   1.0000   1.0000
     1.0000   1.0000   1.0000   1.0000   1.0000   1.0000   1.0000   1.0000
     1.0000   1.0000   1.0000   1.0000   1.0000   1.0000   1.0000   1.0000
     1.0000   1.0000   1.0000   1.0000   1.0000   1.0000   1.0000   1.0000
     1.0000   1.0000   1.0000   1.0000   1.0000   1.0000   1.0000   1.0000
     1.0000   1.0000   1.0000   1.0000   1.0000   1.0000   1.0000   1.0000
     1.0000   1.0000   1.0000   1.0000   1.0000   1.0000   1.0000   1.0000
     1.0000   1.0000   1.0000   1.0000   1.0000   1.0000   1.0000   1.0000
     1.0000   1.0000   1.0000   1.0000   1.0000   1.0000   1.0000   1.0000
     1.0000   1.0000   1.0000   1.0000   1.0000   1.0000   1.0000   1.0000
     1.0000   1.0000   1.0000   1.0000   1.0000   1.0000   1.0000   1.0000
     1.0000   1.0000   1.0000   1.0000   1.0000   1.0000   1.0000   1.0000
     1.0000   1.0000   1.0000   1.0000   1.0000   1.0000   1.0000   1.0000
     1.0000   1.0000   1.0000   1.0000   1.0000   1.0000   1.0000   1.0000
     1.0000   1.0000   1.0000   1.0000   1.0000   1.0000   1.0000   1.0000
     1.0000   1.0000   1.0000   1.0000   1.0000   1.0000   1.0000   1.0000
     1.0000   1.0000   1.0000   1.0000   1.0000   1.0000   1.0000   1.0000
     1.0000   1.0000   1.0000   1.0000   1.0000   1.0000   1.0000   1.0000
     1.0000   1.0000   1.0000   1.0000   1.0000   1.0000   1.0000   1.0000
     1.0000   1.0000   1.0000   1.0000   1.0000   1.0000   1.0000   1.0000
     1.0000   1.0000   1.0000   1.0000   1.0000   1.0000   1.0000   1.0000
     1.0000   1.0000   1.0000   1.0000   1.0000   1.0000   1.0000   1.0000
     1.0000   1.0000   1.0000   1.0000   1.0000   1.0000   1.0000   1.0000
     1.0000   1.0000   1.0000   1.0000   1.0000   1.0000   1.0000   1.0000
     1.0000   1.0000   1.0000   1.0000   1.0000   1.0000   1.0000   1.0000
     1.0000   1.0000   1.0000   1.0000   1.0000   1.0000   1.0000   1.0000
     1.0000   1.0000   1.0000   1.0000   1.0000   1.0000   1.0000   1.0000
     1.0000   1.0000   1.0000   1.0000   1.0000   1.0000   1.0000   1.0000
     1.0000   1.0000   1.0000   1.0000   1.0000   1.0000   1.0000   1.0000
     1.0000   1.0000   1.0000   1.0000   1.0000   1.0000   1.0000   1.0000
     1.0000   1.0000   1.0000   1.0000   1.0000   1.0000   1.0000   1.0000
     1.0000   1.0000   1.0000   1.0000   1.0000   1.0000   1.0000   1.0000
     1.0000   1.0000   1.0000   1.0000   1.0000   1.0000   1.0000   1.0000
     1.0000   1.0000   1.0000   1.0000   1.0000   1.0000   1.0000   1.0000
     1.0000   1.0000   1.0000   1.0000   1.0000   1.0000   1.0000   1.0000
     0.0000   0.0000   0.0000   0.0000   0.0000   0.0000   0.0000   0.0000
     0.0000   0.0000   0.0000   0.0000   0.0000   0.0000   0.0000   0.0000
     0.0000   0.0000   0.0000   0.0000   0.0000   0.0000   0.0000   0.0000
     0.0000   0.0000   0.0000   0.0000   0.0000   0.0000   0.0000   0.0000
     0.0000   0.0000   0.0000   0.0000   0.0000   0.0000   0.0000   0.0000
     0.0000   0.0000   0.0000   0.0000   0.0000   0.0000   0.0000   0.0000
     0.0000   0.0000   0.0000   0.0000   0.0000   0.0000   0.0000   0.0000
     0.0000   0.0000

     the Fermi energy is     5.4367 ev

!    total energy              =  -10101.00619706 Ry
     total all-electron energy =   -139419.535245 Ry
     estimated scf accuracy    <          2.2E-09 Ry
     smearing contrib. (-TS)   =      -0.00000000 Ry
     internal energy E=F+TS    =  -10101.00619706 Ry

     The total energy is F=E-TS. E is the sum of the following terms:
     one-electron contribution =   -3090.80626958 Ry
     hartree contribution      =    2122.01359815 Ry
     xc contribution           =   -1660.99003015 Ry
     ewald contribution        =   -2984.70201120 Ry
     Hubbard energy            =       0.28233618 Ry
     one-center paw contrib.   =   -4486.80382045 Ry
      -> PAW hartree energy AE =     123.67308174 Ry
      -> PAW hartree energy PS =    -123.02552160 Ry
      -> PAW xc energy AE      =    -143.25948351 Ry
      -> PAW xc energy PS      =      47.19636882 Ry
      -> total E_H with PAW    =    2122.66115828 Ry
      -> total E_XC with PAW   =   -1757.05314484 Ry

     total magnetization       =    -0.00 Bohr mag/cell
     absolute magnetization    =     0.00 Bohr mag/cell

     convergence has been achieved in  14 iterations

     Writing all to output data dir ./out/Cu_vac_qp1_U7_unrlxd.save/

     General routines

     Parallel routines

     Hubbard U routines

     PAW routines

   This run was terminated on:   9:21: 2  25Jul2024

   JOB DONE.