     Program PWSCF v.7.2 starts on  7Jul2024 at  4:35:58

     Reading input from 2.Fe_vac_in_ZnS.scf.qp2.in

     Current dimensions of program PWSCF are:
     Max number of different atomic species (ntypx) = 10
     Max number of k-points (npk) =  40000
     Max angular momentum in pseudopotentials (lmaxx) =  4
     file S.pbe-n-kjpaw_psl.1.0.0.UPF: wavefunction(s)  3S 3P renormalized
     file Zn.pbe-dnl-kjpaw_psl.1.0.0.UPF: wavefunction(s)  4S 3D renormalized
     file Fe.pbe-spn-kjpaw_psl.1.0.0.UPF: wavefunction(s)  3P 3D renormalized

     K-points division:     npool     =       7
     R & G space division:  proc/nbgrp/npool/nimage =     112
     Subspace diagonalization in iterative solution of the eigenvalue problem:
     one sub-group per band group will be used

     Using Slab Decomposition

     bravais-lattice index     =            1
     lattice parameter (alat)  =      20.5686  a.u.
     unit-cell volume          =    8701.8437 (a.u.)^3
     number of atoms/cell      =           63
     number of atomic types    =            3
     number of electrons       =       572.00
     number of Kohn-Sham states=          343
     kinetic-energy cutoff     =     150.0000  Ry
     charge density cutoff     =     600.0000  Ry
     scf convergence threshold =      1.0E-08
     mixing beta               =       0.7000
     number of iterations used =            8  plain     mixing
     Exchange-correlation= SLA  PW   PBX  PBC
                           (   1   4   3   4   0   0   0)

     celldm(1)=  20.568554  celldm(2)=   0.000000  celldm(3)=   0.000000
     celldm(4)=   0.000000  celldm(5)=   0.000000  celldm(6)=   0.000000

     crystal axes: (cart. coord. in units of alat)
               a(1) = (   1.000000   0.000000   0.000000 )
               a(2) = (   0.000000   1.000000   0.000000 )
               a(3) = (   0.000000   0.000000   1.000000 )

     reciprocal axes: (cart. coord. in units 2 pi/alat)
               b(1) = (  1.000000  0.000000  0.000000 )
               b(2) = (  0.000000  1.000000  0.000000 )
               b(3) = (  0.000000  0.000000  1.000000 )

     PseudoPot. # 1 for S  read from file:
     /arf/home/amuhaymin/pseudo/S.pbe-n-kjpaw_psl.1.0.0.UPF
     MD5 check sum: fb45dfebcf3e72a4e1bd4a866ec2e262
     Pseudo is Projector augmented-wave + core cor, Zval =  6.0
     Generated using &quot;atomic&quot; code by A. Dal Corso  v.6.3
     Shape of augmentation charge: PSQ
     Using radial grid of 1151 points,  6 beta functions with:
                l(1) =   0
                l(2) =   0
                l(3) =   1
                l(4) =   1
                l(5) =   2
                l(6) =   2
     Q(r) pseudized with 0 coefficients

     PseudoPot. # 2 for Zn read from file:
     /arf/home/amuhaymin/pseudo/Zn.pbe-dnl-kjpaw_psl.1.0.0.UPF
     MD5 check sum: c608214d9520ac179f507641260889e3
     Pseudo is Projector augmented-wave + core cor, Zval = 12.0
     Generated using &quot;atomic&quot; code by A. Dal Corso  v.6.2.2
     Shape of augmentation charge: PSQ
     Using radial grid of 1201 points,  6 beta functions with:
                l(1) =   0
                l(2) =   0
                l(3) =   1
                l(4) =   1
                l(5) =   2
                l(6) =   2
     Q(r) pseudized with 0 coefficients

     PseudoPot. # 3 for Fe read from file:
     /arf/home/amuhaymin/pseudo/Fe.pbe-spn-kjpaw_psl.1.0.0.UPF
     MD5 check sum: fc81f059e5c5069939230b1155715ae8
     Pseudo is Projector augmented-wave + core cor, Zval = 16.0
     Generated using &quot;atomic&quot; code by A. Dal Corso  v.6.3
     Shape of augmentation charge: PSQ
     Using radial grid of 1191 points,  6 beta functions with:
                l(1) =   0
                l(2) =   0
                l(3) =   1
                l(4) =   1
                l(5) =   2
                l(6) =   2
     Q(r) pseudized with 0 coefficients

     atomic species   valence    mass     pseudopotential
        S              6.00    32.06500     S ( 1.00)
        Zn            12.00    65.38000     Zn( 1.00)
        Fe            16.00    63.54600     Fe( 1.00)

     Starting magnetic structure
     atomic species   magnetization
        S            0.000
        Zn           0.000
        Fe           0.250

      6 Sym. Ops. (no inversion) found

                                    s                        frac. trans.

      isym =  1     identity

 cryst.   s( 1) = (     1          0          0      )
                  (     0          1          0      )
                  (     0          0          1      )

 cart.    s( 1) = (  1.0000000  0.0000000  0.0000000 )
                  (  0.0000000  1.0000000  0.0000000 )
                  (  0.0000000  0.0000000  1.0000000 )

      isym =  2     120 deg rotation - cart. axis [-1,-1,-1]

[...]

      isym =  3     120 deg rotation - cart. axis [1,1,1]

[...]

      isym =  4     inv. 180 deg rotation - cart. axis [1,-1,0]

[...]

      isym =  6     inv. 180 deg rotation - cart. axis [0,1,-1]

 cryst.   s( 6) = (     1          0          0      )
                  (     0          0          1      )
                  (     0          1          0      )

 cart.    s( 6) = (  1.0000000  0.0000000  0.0000000 )
                  (  0.0000000  0.0000000  1.0000000 )
                  (  0.0000000  1.0000000  0.0000000 )

     point group C_3v (3m)
     there are  3 classes
     the character table:

       E     2C3   3s_v
A_1    1.00  1.00  1.00
A_2    1.00  1.00 -1.00
E      2.00 -1.00  0.00

     the symmetry operations in each class and the name of the first element:

     E        1
          identity
     2C3      2    3
          120 deg rotation - cart. axis [-1,-1,-1]
     3s_v     4    5    6
          inv. 180 deg rotation - cart. axis [1,-1,0]

   Cartesian axes

     site n.     atom                  positions (alat units)
         1           Zn  tau(   1) = (   0.0003398   0.0003398   0.0003398  )
         2           Zn  tau(   2) = (   0.0004045   0.2494497   0.2494497  )
         3           Zn  tau(   3) = (   0.2494497   0.0004045   0.2494497  )
         4           Zn  tau(   4) = (   0.2494497   0.2494497   0.0004045  )
         5           S   tau(   5) = (   0.1244742   0.3748443   0.3748443  )
         6           S   tau(   6) = (   0.1248925   0.1248925   0.1248925  )
         7           S   tau(   7) = (   0.3748443   0.3748443   0.1244742  )
         8           S   tau(   8) = (   0.3748443   0.1244742   0.3748443  )
         9           Zn  tau(   9) = (   0.0025492   0.0025492   0.4992508  )
        10           Zn  tau(  10) = (   0.0023955   0.2474991   0.7507226  )
        11           Zn  tau(  11) = (   0.2474991   0.0023955   0.7507226  )
        12           Zn  tau(  12) = (   0.2493357   0.2493357   0.4981442  )
        13           S   tau(  13) = (   0.1247450   0.3747474   0.8751778  )
        14           S   tau(  14) = (   0.1257925   0.1257925   0.6244044  )
        15           S   tau(  15) = (   0.3744376   0.3744376   0.6281220  )
        16           S   tau(  16) = (   0.3747474   0.1247450   0.8751778  )
        17           Zn  tau(  17) = (   0.0025492   0.4992508   0.0025492  )
        18           Zn  tau(  18) = (   0.0023955   0.7507226   0.2474991  )
        19           Zn  tau(  19) = (   0.2493357   0.4981442   0.2493357  )
        20           Zn  tau(  20) = (   0.2474991   0.7507226   0.0023955  )
        21           S   tau(  21) = (   0.1247450   0.8751778   0.3747474  )
        22           S   tau(  22) = (   0.1257925   0.6244044   0.1257925  )
        23           S   tau(  23) = (   0.3747474   0.8751778   0.1247450  )
        24           S   tau(  24) = (   0.3744376   0.6281220   0.3744376  )
        25           Zn  tau(  25) = (   0.0031383   0.5002275   0.5002275  )
        26           Zn  tau(  26) = (   0.0030228   0.7497703   0.7497703  )
        27           Zn  tau(  27) = (   0.2462463   0.5006892   0.7505947  )
        28           Zn  tau(  28) = (   0.2462463   0.7505947   0.5006892  )
        29           S   tau(  29) = (   0.1249911   0.8750256   0.8750256  )
        30           S   tau(  30) = (   0.1250656   0.6249492   0.6249492  )
        31           S   tau(  31) = (   0.3733773   0.8767781   0.6226915  )
        32           S   tau(  32) = (   0.3733773   0.6226915   0.8767781  )
        33           Zn  tau(  33) = (   0.4992508   0.0025492   0.0025492  )
        34           Zn  tau(  34) = (   0.4981442   0.2493357   0.2493357  )
        35           Zn  tau(  35) = (   0.7507226   0.0023955   0.2474991  )
        36           Zn  tau(  36) = (   0.7507226   0.2474991   0.0023955  )
        37           S   tau(  37) = (   0.6281220   0.3744376   0.3744376  )
        38           S   tau(  38) = (   0.6244044   0.1257925   0.1257925  )
        39           S   tau(  39) = (   0.8751778   0.3747474   0.1247450  )
        40           S   tau(  40) = (   0.8751778   0.1247450   0.3747474  )
        41           Zn  tau(  41) = (   0.5002275   0.0031383   0.5002275  )
        42           Zn  tau(  42) = (   0.5006892   0.2462463   0.7505947  )
        43           Zn  tau(  43) = (   0.7497703   0.0030228   0.7497703  )
        44           Zn  tau(  44) = (   0.7505947   0.2462463   0.5006892  )
        45           S   tau(  45) = (   0.6226915   0.3733773   0.8767781  )
        46           S   tau(  46) = (   0.6249492   0.1250656   0.6249492  )
        47           S   tau(  47) = (   0.8767781   0.3733773   0.6226915  )
        48           S   tau(  48) = (   0.8750256   0.1249911   0.8750256  )
        49           Zn  tau(  49) = (   0.5002275   0.5002275   0.0031383  )
        50           Zn  tau(  50) = (   0.5006892   0.7505947   0.2462463  )
        51           Zn  tau(  51) = (   0.7505947   0.5006892   0.2462463  )
        52           Zn  tau(  52) = (   0.7497703   0.7497703   0.0030228  )
        53           S   tau(  53) = (   0.6226915   0.8767781   0.3733773  )
        54           S   tau(  54) = (   0.6249492   0.6249492   0.1250656  )
        55           S   tau(  55) = (   0.8750256   0.8750256   0.1249911  )
        56           S   tau(  56) = (   0.8767781   0.6226915   0.3733773  )
        57           Fe  tau(  57) = (   0.4653075   0.4653075   0.4653075  )
        58           Zn  tau(  58) = (   0.4700371   0.7795349   0.7795349  )
        59           Zn  tau(  59) = (   0.7795349   0.4700371   0.7795349  )
        60           Zn  tau(  60) = (   0.7795349   0.7795349   0.4700371  )
        61           S   tau(  61) = (   0.6271460   0.8765485   0.8765485  )
        62           S   tau(  62) = (   0.8765485   0.8765485   0.6271460  )
        63           S   tau(  63) = (   0.8765485   0.6271460   0.8765485  )

   Crystallographic axes

     site n.     atom                  positions (cryst. coord.)
         1           Zn  tau(   1) = (  0.0003398  0.0003398  0.0003398  )
         2           Zn  tau(   2) = (  0.0004045  0.2494497  0.2494497  )
         3           Zn  tau(   3) = (  0.2494497  0.0004045  0.2494497  )
         4           Zn  tau(   4) = (  0.2494497  0.2494497  0.0004045  )
[...]
     atom  25 (R=0.086)  charge=  9.9953  magn=  0.0000
     atom  26 (R=0.086)  charge=  9.9945  magn=  0.0003
     atom  27 (R=0.086)  charge=  9.9942  magn=  0.0069
     atom  28 (R=0.086)  charge=  9.9942  magn=  0.0069
     atom  29 (R=0.086)  charge=  3.6923  magn=  0.0003
     atom  30 (R=0.086)  charge=  3.7017  magn=  0.0020
     atom  31 (R=0.086)  charge=  3.6954  magn=  0.0012
     atom  32 (R=0.086)  charge=  3.6954  magn=  0.0012
     atom  33 (R=0.086)  charge=  9.9935  magn=  0.0011
     atom  34 (R=0.086)  charge=  9.9913  magn=  0.0042
     atom  35 (R=0.086)  charge=  9.9940  magn=  0.0001
     atom  36 (R=0.086)  charge=  9.9940  magn=  0.0001
     atom  37 (R=0.086)  charge=  3.7035  magn=  0.0636
     atom  38 (R=0.086)  charge=  3.6988  magn=  0.0037
     atom  39 (R=0.086)  charge=  3.6928  magn=  0.0056
     atom  40 (R=0.086)  charge=  3.6928  magn=  0.0056
     atom  41 (R=0.086)  charge=  9.9953  magn=  0.0000
     atom  42 (R=0.086)  charge=  9.9942  magn=  0.0069
     atom  43 (R=0.086)  charge=  9.9945  magn=  0.0003
     atom  44 (R=0.086)  charge=  9.9942  magn=  0.0069
     atom  45 (R=0.086)  charge=  3.6954  magn=  0.0012
     atom  46 (R=0.086)  charge=  3.7017  magn=  0.0020
     atom  47 (R=0.086)  charge=  3.6954  magn=  0.0012
     atom  48 (R=0.086)  charge=  3.6923  magn=  0.0003
     atom  49 (R=0.086)  charge=  9.9953  magn=  0.0000
     atom  50 (R=0.086)  charge=  9.9942  magn=  0.0069
     atom  51 (R=0.086)  charge=  9.9942  magn=  0.0069
     atom  52 (R=0.086)  charge=  9.9945  magn=  0.0003
     atom  53 (R=0.086)  charge=  3.6954  magn=  0.0012
     atom  54 (R=0.086)  charge=  3.7017  magn=  0.0020
     atom  55 (R=0.086)  charge=  3.6923  magn=  0.0003
     atom  56 (R=0.086)  charge=  3.6954  magn=  0.0012
     atom  57 (R=0.086)  charge= 13.7886  magn=  3.1386
     atom  58 (R=0.086)  charge= 10.0098  magn=  0.0001
     atom  59 (R=0.086)  charge= 10.0098  magn=  0.0001
     atom  60 (R=0.086)  charge= 10.0098  magn=  0.0001
     atom  61 (R=0.086)  charge=  3.6940  magn=  0.0007
     atom  62 (R=0.086)  charge=  3.6940  magn=  0.0007
     atom  63 (R=0.086)  charge=  3.6940  magn=  0.0007

     End of self-consistent calculation

 ------ SPIN UP ------------

          k = 0.0000 0.0000 0.0000 (269825 PWs)   bands (ev):

   -83.0717 -49.3999 -49.3999 -48.5680  -7.6160  -7.1412  -7.1412  -7.1162
    -7.1024  -7.1024  -6.9808  -6.8774  -6.8774  -6.8633  -6.8101  -6.8039
    -6.8039  -6.7654  -6.7654  -6.7398  -6.7398  -6.7282  -6.6778  -6.6519
    -6.6519  -6.6512  -6.5804  -6.5140  -6.5140  -6.4161  -6.4080  -6.4080
    -6.3617  -6.3617  -6.3319  -1.0672  -1.0672  -1.0668  -1.0537  -1.0467
    -1.0467  -1.0386  -1.0386  -1.0246  -0.9480  -0.9322  -0.9322  -0.9082
    -0.9082  -0.8949  -0.8110  -0.8110  -0.8046  -0.7659  -0.7659  -0.7582
    -0.7385  -0.7385  -0.7194  -0.6979  -0.6938  -0.6921  -0.6921  -0.6848
    -0.6848  -0.6709  -0.6697  -0.6697  -0.6684  -0.6684  -0.6622  -0.6570
    -0.6570  -0.6561  -0.6550  -0.6435  -0.6435  -0.6423  -0.6315  -0.6315
    -0.6274  -0.6274  -0.6258  -0.6218  -0.6179  -0.6170  -0.6170  -0.6159
    -0.6159  -0.6090  -0.5997  -0.5997  -0.5909  -0.5866  -0.5866  -0.5730
    -0.5684  -0.5684  -0.5517  -0.5517  -0.5511  -0.5324  -0.5324  -0.5296
    -0.5296  -0.5232  -0.5165  -0.5165  -0.5063  -0.5001  -0.4925  -0.4925
    -0.4769  -0.4769  -0.4717  -0.4586  -0.4570  -0.4570  -0.4549  -0.4524
    -0.4524  -0.4221  -0.4204  -0.4204  -0.3885  -0.3601  -0.3601  -0.3496
    -0.3426  -0.3426  -0.3335  -0.3315  -0.3315  -0.3286  -0.3244  -0.3196
    -0.3193  -0.3193  -0.3156  -0.3156  -0.3107  -0.3107  -0.3008  -0.2965
    -0.2965  -0.2957  -0.2879  -0.2879  -0.2864  -0.2861  -0.2861  -0.2797
    -0.2676  -0.2676  -0.2635  -0.2589  -0.2589  -0.2560  -0.2542  -0.2542
    -0.2422  -0.2396  -0.2396  -0.2354  -0.2311  -0.2311  -0.2153  -0.2153
    -0.2118  -0.1813  -0.1802  -0.1802  -0.1783  -0.1605  -0.1605  -0.1549
    -0.1546  -0.1546  -0.1294  -0.1294  -0.1032  -0.0983  -0.0983  -0.0900
     0.0542   0.0542   0.0636   0.0776   0.0916   0.0916   0.1135   0.3384
     0.3384   0.3387   0.8734   0.8734   0.9049   0.9665   0.9665   0.9849
     1.0106   1.0106   1.1126   1.3040   1.3040   1.4076   1.4824   1.4824
     1.4883   1.5412   1.5478   1.5478   1.6898   1.6898   1.8340   2.0792
     2.0792   2.4554   2.4554   2.6493   2.6637   2.6637   2.6662   2.7316
     2.7316   2.7426   2.8176   2.8226   2.8226   2.8444   2.8444   2.8512
     2.8901   2.9354   2.9354   2.9474   2.9627   2.9627   2.9935   3.0161
     3.0320   3.0320   3.0887   3.0887   3.1965   3.2329   3.2329   3.2904
     3.3555   3.3555   3.4933   3.4933   3.7113   3.7871   3.7871   4.1308
     4.1460   4.1683   4.1683   4.2350   4.2350   4.2427   4.3115   4.3115
     4.3654   4.3940   4.3940   4.4435   4.4812   4.4891   4.4891   4.5214
     4.5705   4.5933   4.5933   4.6201   4.6201   4.6210   4.6275   4.6275
     4.6296   4.6561   4.6561   4.9331   4.9331   5.3542   5.4645   5.4645
     7.3666   8.0591   8.6677   8.6831   8.6831   8.7944   9.0402   9.0402
     9.3464   9.3464   9.4076   9.5740   9.6207   9.6207   9.7260   9.7260
     9.7310   9.9014   9.9014   9.9975   9.9975  10.0382  10.0479  10.0479
    10.0545  10.1003  10.1656  10.1656  10.1696  10.1971  10.1971  10.2039
    10.3633  10.3748  10.3748  10.7142  10.7142  10.8513  11.1501  11.1795
    11.1795  11.3239  11.3239  11.3480  11.3537  11.3537  11.4274  11.8062
    11.8168  11.8169  11.8342  11.8342  11.9176  11.9900  12.0246

     occupation numbers
     1.0000   1.0000   1.0000   1.0000   1.0000   1.0000   1.0000   1.0000
     1.0000   1.0000   1.0000   1.0000   1.0000   1.0000   1.0000   1.0000
     1.0000   1.0000   1.0000   1.0000   1.0000   1.0000   1.0000   1.0000
     1.0000   1.0000   1.0000   1.0000   1.0000   1.0000   1.0000   1.0000
     1.0000   1.0000   1.0000   1.0000   1.0000   1.0000   1.0000   1.0000
     1.0000   1.0000   1.0000   1.0000   1.0000   1.0000   1.0000   1.0000
     1.0000   1.0000   1.0000   1.0000   1.0000   1.0000   1.0000   1.0000
     1.0000   1.0000   1.0000   1.0000   1.0000   1.0000   1.0000   1.0000
     1.0000   1.0000   1.0000   1.0000   1.0000   1.0000   1.0000   1.0000
     1.0000   1.0000   1.0000   1.0000   1.0000   1.0000   1.0000   1.0000
     1.0000   1.0000   1.0000   1.0000   1.0000   1.0000   1.0000   1.0000
     1.0000   1.0000   1.0000   1.0000   1.0000   1.0000   1.0000   1.0000
     1.0000   1.0000   1.0000   1.0000   1.0000   1.0000   1.0000   1.0000
     1.0000   1.0000   1.0000   1.0000   1.0000   1.0000   1.0000   1.0000
     1.0000   1.0000   1.0000   1.0000   1.0000   1.0000   1.0000   1.0000
     1.0000   1.0000   1.0000   1.0000   1.0000   1.0000   1.0000   1.0000
     1.0000   1.0000   1.0000   1.0000   1.0000   1.0000   1.0000   1.0000
     1.0000   1.0000   1.0000   1.0000   1.0000   1.0000   1.0000   1.0000
     1.0000   1.0000   1.0000   1.0000   1.0000   1.0000   1.0000   1.0000
     1.0000   1.0000   1.0000   1.0000   1.0000   1.0000   1.0000   1.0000
     1.0000   1.0000   1.0000   1.0000   1.0000   1.0000   1.0000   1.0000
     1.0000   1.0000   1.0000   1.0000   1.0000   1.0000   1.0000   1.0000
     1.0000   1.0000   1.0000   1.0000   1.0000   1.0000   1.0000   1.0000
     1.0000   1.0000   1.0000   1.0000   1.0000   1.0000   1.0000   1.0000
     1.0000   1.0000   1.0000   1.0000   1.0000   1.0000   1.0000   1.0000
     1.0000   1.0000   1.0000   1.0000   1.0000   1.0000   1.0000   1.0000
     1.0000   1.0000   1.0000   1.0000   1.0000   1.0000   1.0000   1.0000
     1.0000   1.0000   1.0000   1.0000   1.0000   1.0000   1.0000   1.0000
     1.0000   1.0000   1.0000   1.0000   1.0000   1.0000   1.0000   1.0000
     1.0000   1.0000   1.0000   1.0000   1.0000   1.0000   1.0000   1.0000
     1.0000   1.0000   1.0000   1.0000   1.0000   1.0000   1.0000   1.0000
     1.0000   1.0000   1.0000   1.0000   1.0000   1.0000   1.0000   1.0000
     1.0000   1.0000   1.0000   1.0000   1.0000   1.0000   1.0000   1.0000
     1.0000   1.0000   1.0000   1.0000   1.0000   1.0000   1.0000   1.0000
     1.0000   1.0000   1.0000   1.0000   1.0000   1.0000   1.0000   1.0000
     1.0000   1.0000   1.0000   1.0000   1.0000   1.0000   1.0000   1.0000
     0.0000   0.0000   0.0000   0.0000   0.0000   0.0000   0.0000   0.0000
     0.0000   0.0000   0.0000   0.0000   0.0000   0.0000   0.0000   0.0000
     0.0000   0.0000   0.0000   0.0000   0.0000   0.0000   0.0000   0.0000
     0.0000   0.0000   0.0000   0.0000   0.0000   0.0000   0.0000   0.0000
     0.0000   0.0000   0.0000   0.0000   0.0000   0.0000   0.0000   0.0000
     0.0000   0.0000   0.0000   0.0000   0.0000   0.0000   0.0000   0.0000
     0.0000   0.0000   0.0000   0.0000   0.0000   0.0000   0.0000

[...]

          k =-0.5000-0.5000-0.5000 (269968 PWs)   bands (ev):

[...]

 ------ SPIN DOWN ----------

[...]

          k =-0.2500 0.0000 0.2500 (269929 PWs)   bands (ev):

[...]

          k = 0.2500-0.2500-0.5000 (269988 PWs)   bands (ev):

   -79.3406 -45.5719 -45.5719 -45.2741  -7.4096  -7.3837  -7.1900  -7.1617
    -7.1409  -7.1052  -6.9923  -6.9267  -6.8330  -6.8122  -6.7804  -6.7570
    -6.7479  -6.7107  -6.6778  -6.6677  -6.6378  -6.6114  -6.6058  -6.5950
    -6.5756  -6.5517  -6.5458  -6.5192  -6.4881  -6.4800  -6.4663  -6.4484
    -6.4269  -6.4182  -6.3811  -1.0635  -1.0619  -1.0601  -1.0507  -1.0477
    -1.0448  -1.0358  -1.0303  -1.0286  -0.9294  -0.9257  -0.9217  -0.9140
    -0.9094  -0.9068  -0.7777  -0.7734  -0.7577  -0.7530  -0.7455  -0.7398
    -0.7305  -0.7177  -0.7151  -0.7108  -0.7050  -0.7002  -0.6992  -0.6918
    -0.6893  -0.6863  -0.6824  -0.6799  -0.6752  -0.6720  -0.6709  -0.6687
    -0.6663  -0.6592  -0.6552  -0.6541  -0.6481  -0.6467  -0.6417  -0.6403
    -0.6370  -0.6363  -0.6270  -0.6254  -0.6220  -0.6212  -0.6167  -0.6112
    -0.6061  -0.6006  -0.5959  -0.5889  -0.5844  -0.5831  -0.5798  -0.5775
    -0.5729  -0.5704  -0.5593  -0.5567  -0.5518  -0.5497  -0.5452  -0.5346
    -0.5246  -0.5222  -0.5210  -0.5147  -0.5100  -0.5024  -0.5019  -0.4984
    -0.4970  -0.4842  -0.4785  -0.4683  -0.4674  -0.4559  -0.4334  -0.4310
    -0.4138  -0.4090  -0.4084  -0.4005  -0.3833  -0.3797  -0.3724  -0.3660
    -0.3608  -0.3557  -0.3492  -0.3455  -0.3424  -0.3352  -0.3238  -0.3167
    -0.3119  -0.3115  -0.3059  -0.3043  -0.3010  -0.3007  -0.2935  -0.2926
    -0.2888  -0.2848  -0.2799  -0.2782  -0.2731  -0.2715  -0.2673  -0.2592
    -0.2538  -0.2524  -0.2497  -0.2467  -0.2456  -0.2431  -0.2413  -0.2409
    -0.2360  -0.2321  -0.2305  -0.2244  -0.2212  -0.2171  -0.2117  -0.2074
    -0.1990  -0.1796  -0.1772  -0.1695  -0.1660  -0.1567  -0.1547  -0.1529
    -0.1448  -0.1422  -0.1242  -0.1116  -0.0983  -0.0732  -0.0544  -0.0471
    -0.0318  -0.0182  -0.0047  -0.0039   0.0281   0.0478   0.5281   0.6046
     0.7324   0.7900   0.8268   0.8594   0.8937   0.9253   0.9354   0.9737
     1.0177   1.0434   1.0547   1.0838   1.1046   1.1443   1.2122   1.4396
     1.4903   1.5023   1.5495   1.6186   1.6813   1.7051   1.8231   1.9416
     2.4835   2.5240   2.5395   2.5578   2.5917   2.6106   2.6318   2.6828
     2.7441   2.7881   2.7947   2.8445   2.8866   2.9810   3.0261   3.1232
     3.1264   3.2151   3.3015   3.3400   3.3741   3.4345   3.4392   3.4679
     3.4996   3.5134   3.5305   3.5565   3.5722   3.5810   3.6417   3.6562
     3.6900   3.7238   3.7303   3.7342   3.7524   3.7734   3.7874   3.8100
     3.8636   3.9575   3.9962   4.0144   4.0533   4.0689   4.1074   4.1341
     4.2119   4.2277   4.2586   4.3118   4.3365   4.3676   4.3958   4.4315
     4.5029   4.5894   4.7633   4.8005   4.8404   4.8649   4.8908   4.9824
     5.0318   5.0583   5.0712   5.9587   6.9160   6.9491   7.0439   7.0491
     8.3756   8.6288   8.6961   8.9512   9.0533   9.1452   9.2213   9.2908
     9.3812   9.4056   9.4270   9.5032   9.5431   9.6213   9.6480   9.6539
     9.7083   9.7666   9.7828   9.8321   9.8472   9.9154   9.9274   9.9732
     9.9904  10.0755  10.1491  10.1782  10.2305  10.2519  10.3449  10.3853
    10.4333  10.5132  10.6195  10.6601  10.7016  10.7868  10.8504  10.9302
    10.9787  11.0627  11.1302  11.1828  11.2821  11.3564  11.4078  11.4573
    11.5004  11.5216  11.5502  11.6054  11.6259  11.6394  11.6821

     occupation numbers
     1.0000   1.0000   1.0000   1.0000   1.0000   1.0000   1.0000   1.0000
     1.0000   1.0000   1.0000   1.0000   1.0000   1.0000   1.0000   1.0000
     1.0000   1.0000   1.0000   1.0000   1.0000   1.0000   1.0000   1.0000
     1.0000   1.0000   1.0000   1.0000   1.0000   1.0000   1.0000   1.0000
     1.0000   1.0000   1.0000   1.0000   1.0000   1.0000   1.0000   1.0000
     1.0000   1.0000   1.0000   1.0000   1.0000   1.0000   1.0000   1.0000
     1.0000   1.0000   1.0000   1.0000   1.0000   1.0000   1.0000   1.0000
     1.0000   1.0000   1.0000   1.0000   1.0000   1.0000   1.0000   1.0000
     1.0000   1.0000   1.0000   1.0000   1.0000   1.0000   1.0000   1.0000
     1.0000   1.0000   1.0000   1.0000   1.0000   1.0000   1.0000   1.0000
     1.0000   1.0000   1.0000   1.0000   1.0000   1.0000   1.0000   1.0000
     1.0000   1.0000   1.0000   1.0000   1.0000   1.0000   1.0000   1.0000
     1.0000   1.0000   1.0000   1.0000   1.0000   1.0000   1.0000   1.0000
     1.0000   1.0000   1.0000   1.0000   1.0000   1.0000   1.0000   1.0000
     1.0000   1.0000   1.0000   1.0000   1.0000   1.0000   1.0000   1.0000
     1.0000   1.0000   1.0000   1.0000   1.0000   1.0000   1.0000   1.0000
     1.0000   1.0000   1.0000   1.0000   1.0000   1.0000   1.0000   1.0000
     1.0000   1.0000   1.0000   1.0000   1.0000   1.0000   1.0000   1.0000
     1.0000   1.0000   1.0000   1.0000   1.0000   1.0000   1.0000   1.0000
     1.0000   1.0000   1.0000   1.0000   1.0000   1.0000   1.0000   1.0000
     1.0000   1.0000   1.0000   1.0000   1.0000   1.0000   1.0000   1.0000
     1.0000   1.0000   1.0000   1.0000   1.0000   1.0000   1.0000   1.0000
     1.0000   1.0000   1.0000   1.0000   1.0000   1.0000   1.0000   1.0000
     1.0000   1.0000   1.0000   1.0000   1.0000   1.0000   1.0000   1.0000
     1.0000   1.0000   1.0000   1.0000   1.0000   1.0000   1.0000   1.0000
     1.0000   1.0000   1.0000   1.0000   1.0000   1.0000   1.0000   1.0000
     1.0000   1.0000   1.0000   1.0000   1.0000   1.0000   1.0000   1.0000
     1.0000   1.0000   1.0000   1.0000   1.0000   1.0000   1.0000   1.0000
     1.0000   1.0000   1.0000   1.0000   1.0000   1.0000   1.0000   1.0000
     1.0000   1.0000   1.0000   1.0000   1.0000   1.0000   1.0000   1.0000
     1.0000   1.0000   1.0000   1.0000   1.0000   1.0000   1.0000   1.0000
     1.0000   1.0000   1.0000   1.0000   1.0000   1.0000   1.0000   1.0000
     1.0000   1.0000   1.0000   1.0000   1.0000   1.0000   1.0000   1.0000
     1.0000   1.0000   1.0000   1.0000   1.0000   1.0000   1.0000   1.0000
     1.0000   1.0000   1.0000   1.0000   1.0000   1.0000   1.0000   1.0000
     1.0000   1.0000   1.0000   1.0000   0.0000   0.0000   0.0000   0.0000
     0.0000   0.0000   0.0000   0.0000   0.0000   0.0000   0.0000   0.0000
     0.0000   0.0000   0.0000   0.0000   0.0000   0.0000   0.0000   0.0000
     0.0000   0.0000   0.0000   0.0000   0.0000   0.0000   0.0000   0.0000
     0.0000   0.0000   0.0000   0.0000   0.0000   0.0000   0.0000   0.0000
     0.0000   0.0000   0.0000   0.0000   0.0000   0.0000   0.0000   0.0000
     0.0000   0.0000   0.0000   0.0000   0.0000   0.0000   0.0000   0.0000
     0.0000   0.0000   0.0000   0.0000   0.0000   0.0000   0.0000

     the Fermi energy is     6.2255 ev

!    total energy              =   -9944.27848990 Ry
     total all-electron energy =   -138656.017467 Ry
     estimated scf accuracy    <          3.5E-09 Ry
     smearing contrib. (-TS)   =      -0.00000000 Ry
     internal energy E=F+TS    =   -9944.27848990 Ry

     The total energy is F=E-TS. E is the sum of the following terms:
     one-electron contribution =   -2988.11513604 Ry
     hartree contribution      =    2058.76346340 Ry
     xc contribution           =   -1648.76854811 Ry
     ewald contribution        =   -2895.25584223 Ry
     one-center paw contrib.   =   -4470.90242692 Ry
      -> PAW hartree energy AE =     123.07581702 Ry
      -> PAW hartree energy PS =    -122.43332755 Ry
      -> PAW xc energy AE      =    -143.19312785 Ry
      -> PAW xc energy PS      =      47.13208603 Ry
      -> total E_H with PAW    =    2059.40595287 Ry
      -> total E_XC with PAW   =   -1744.82958994 Ry

     total magnetization       =     4.00 Bohr mag/cell
     absolute magnetization    =     4.09 Bohr mag/cell

     convergence has been achieved in  16 iterations

     Writing all to output data dir ./out/Fe_qp2.save/

     General routines

     Parallel routines

     PAW routines

   This run was terminated on:   4:42: 6   7Jul2024

   JOB DONE.