     Program PWSCF v.7.2 starts on  5Jul2024 at  3:44: 4

     Reading input from 1.Cu_vac_in_ZnS.scf.qn1.unrlxd.in

     Current dimensions of program PWSCF are:
     Max number of different atomic species (ntypx) = 10
     Max number of k-points (npk) =  40000
     Max angular momentum in pseudopotentials (lmaxx) =  4
     file S.pbe-n-kjpaw_psl.1.0.0.UPF: wavefunction(s)  3S 3P renormalized
     file Zn.pbe-dnl-kjpaw_psl.1.0.0.UPF: wavefunction(s)  4S 3D renormalized
     file Cu.pbe-spn-kjpaw_psl.1.0.0.UPF: wavefunction(s)  4S 3P 3D renormalized

     K-points division:     npool     =      13
     R & G space division:  proc/nbgrp/npool/nimage =     112
     Subspace diagonalization in iterative solution of the eigenvalue problem:
     one sub-group per band group will be used

     Using Slab Decomposition

     bravais-lattice index     =            1
     lattice parameter (alat)  =      20.5686  a.u.
     unit-cell volume          =    8701.8437 (a.u.)^3
     number of atoms/cell      =           63
     number of atomic types    =            3
     number of electrons       =       578.00
     number of Kohn-Sham states=          347
     kinetic-energy cutoff     =     150.0000  Ry
     charge density cutoff     =     600.0000  Ry
     scf convergence threshold =      1.0E-08
     mixing beta               =       0.7000
     number of iterations used =            8  plain     mixing
     Exchange-correlation= SLA  PW   PBX  PBC
                           (   1   4   3   4   0   0   0)

     celldm(1)=  20.568554  celldm(2)=   0.000000  celldm(3)=   0.000000
     celldm(4)=   0.000000  celldm(5)=   0.000000  celldm(6)=   0.000000

     crystal axes: (cart. coord. in units of alat)
               a(1) = (   1.000000   0.000000   0.000000 )
               a(2) = (   0.000000   1.000000   0.000000 )
               a(3) = (   0.000000   0.000000   1.000000 )

     reciprocal axes: (cart. coord. in units 2 pi/alat)
               b(1) = (  1.000000  0.000000  0.000000 )
               b(2) = (  0.000000  1.000000  0.000000 )
               b(3) = (  0.000000  0.000000  1.000000 )

     PseudoPot. # 1 for S  read from file:
     /arf/home/amuhaymin/pseudo/S.pbe-n-kjpaw_psl.1.0.0.UPF
     MD5 check sum: fb45dfebcf3e72a4e1bd4a866ec2e262
     Pseudo is Projector augmented-wave + core cor, Zval =  6.0
     Generated using &quot;atomic&quot; code by A. Dal Corso  v.6.3
     Shape of augmentation charge: PSQ
     Using radial grid of 1151 points,  6 beta functions with:
                l(1) =   0
                l(2) =   0
                l(3) =   1
                l(4) =   1
                l(5) =   2
                l(6) =   2
     Q(r) pseudized with 0 coefficients

     PseudoPot. # 2 for Zn read from file:
     /arf/home/amuhaymin/pseudo/Zn.pbe-dnl-kjpaw_psl.1.0.0.UPF
     MD5 check sum: c608214d9520ac179f507641260889e3
     Pseudo is Projector augmented-wave + core cor, Zval = 12.0
     Generated using &quot;atomic&quot; code by A. Dal Corso  v.6.2.2
     Shape of augmentation charge: PSQ
     Using radial grid of 1201 points,  6 beta functions with:
                l(1) =   0
                l(2) =   0
                l(3) =   1
                l(4) =   1
                l(5) =   2
                l(6) =   2
     Q(r) pseudized with 0 coefficients

     PseudoPot. # 3 for Cu read from file:
     /arf/home/amuhaymin/pseudo/Cu.pbe-spn-kjpaw_psl.1.0.0.UPF
     MD5 check sum: e7cbaad2f97193e5fe23251a619a52b0
     Pseudo is Projector augmented-wave + core cor, Zval = 19.0
     Generated using &quot;atomic&quot; code by A. Dal Corso  v.6.3
     Shape of augmentation charge: PSQ
     Using radial grid of 1199 points,  6 beta functions with:
                l(1) =   0
                l(2) =   0
                l(3) =   1
                l(4) =   1
                l(5) =   2
                l(6) =   2
     Q(r) pseudized with 0 coefficients

     atomic species   valence    mass     pseudopotential
        S              6.00    32.06500     S ( 1.00)
        Zn            12.00    65.38000     Zn( 1.00)
        Cu            19.00    63.54600     Cu( 1.00)

     Starting magnetic structure
     atomic species   magnetization
        S            0.000
        Zn           0.000
        Cu           0.000

      6 Sym. Ops. (no inversion) found

                                    s                        frac. trans.

      isym =  1     identity

 cryst.   s( 1) = (     1          0          0      )
                  (     0          1          0      )
                  (     0          0          1      )

 cart.    s( 1) = (  1.0000000  0.0000000  0.0000000 )
                  (  0.0000000  1.0000000  0.0000000 )
                  (  0.0000000  0.0000000  1.0000000 )

      isym =  2     120 deg rotation - cart. axis [-1,-1,-1]

[...]

      isym =  3     120 deg rotation - cart. axis [1,1,1]

[...]

      isym =  4     inv. 180 deg rotation - cart. axis [1,-1,0]

[...]

      isym =  6     inv. 180 deg rotation - cart. axis [0,1,-1]

 cryst.   s( 6) = (     1          0          0      )
                  (     0          0          1      )
                  (     0          1          0      )

 cart.    s( 6) = (  1.0000000  0.0000000  0.0000000 )
                  (  0.0000000  0.0000000  1.0000000 )
                  (  0.0000000  1.0000000  0.0000000 )

     point group C_3v (3m)
     there are  3 classes
     the character table:

       E     2C3   3s_v
A_1    1.00  1.00  1.00
A_2    1.00  1.00 -1.00
E      2.00 -1.00  0.00

     the symmetry operations in each class and the name of the first element:

     E        1
          identity
     2C3      2    3
          120 deg rotation - cart. axis [-1,-1,-1]
     3s_v     4    5    6
          inv. 180 deg rotation - cart. axis [1,-1,0]

   Cartesian axes

     site n.     atom                  positions (alat units)
         1           Zn  tau(   1) = (   0.0000000   0.0000000   0.0000000  )
         2           Zn  tau(   2) = (   0.0000000   0.2500000   0.2500000  )
         3           Zn  tau(   3) = (   0.2500000   0.0000000   0.2500000  )
         4           Zn  tau(   4) = (   0.2500000   0.2500000   0.0000000  )
         5           S   tau(   5) = (   0.1250000   0.3750000   0.3750000  )
         6           S   tau(   6) = (   0.1250000   0.1250000   0.1250000  )
         7           S   tau(   7) = (   0.3750000   0.3750000   0.1250000  )
         8           S   tau(   8) = (   0.3750000   0.1250000   0.3750000  )
         9           Zn  tau(   9) = (   0.0000000   0.0000000   0.5000000  )
        10           Zn  tau(  10) = (   0.0000000   0.2500000   0.7500000  )
        11           Zn  tau(  11) = (   0.2500000   0.0000000   0.7500000  )
        12           Zn  tau(  12) = (   0.2500000   0.2500000   0.5000000  )
        13           S   tau(  13) = (   0.1250000   0.3750000   0.8750000  )
        14           S   tau(  14) = (   0.1250000   0.1250000   0.6250000  )
        15           S   tau(  15) = (   0.3750000   0.3750000   0.6250000  )
        16           S   tau(  16) = (   0.3750000   0.1250000   0.8750000  )
        17           Zn  tau(  17) = (   0.0000000   0.5000000   0.0000000  )
        18           Zn  tau(  18) = (   0.0000000   0.7500000   0.2500000  )
        19           Zn  tau(  19) = (   0.2500000   0.5000000   0.2500000  )
        20           Zn  tau(  20) = (   0.2500000   0.7500000   0.0000000  )
        21           S   tau(  21) = (   0.1250000   0.8750000   0.3750000  )
        22           S   tau(  22) = (   0.1250000   0.6250000   0.1250000  )
        23           S   tau(  23) = (   0.3750000   0.8750000   0.1250000  )
        24           S   tau(  24) = (   0.3750000   0.6250000   0.3750000  )
        25           Zn  tau(  25) = (   0.0000000   0.5000000   0.5000000  )
        26           Zn  tau(  26) = (   0.0000000   0.7500000   0.7500000  )
        27           Zn  tau(  27) = (   0.2500000   0.5000000   0.7500000  )
        28           Zn  tau(  28) = (   0.2500000   0.7500000   0.5000000  )
        29           S   tau(  29) = (   0.1250000   0.8750000   0.8750000  )
        30           S   tau(  30) = (   0.1250000   0.6250000   0.6250000  )
        31           S   tau(  31) = (   0.3750000   0.8750000   0.6250000  )
        32           S   tau(  32) = (   0.3750000   0.6250000   0.8750000  )
        33           Zn  tau(  33) = (   0.5000000   0.0000000   0.0000000  )
        34           Zn  tau(  34) = (   0.5000000   0.2500000   0.2500000  )
        35           Zn  tau(  35) = (   0.7500000   0.0000000   0.2500000  )
        36           Zn  tau(  36) = (   0.7500000   0.2500000   0.0000000  )
        37           S   tau(  37) = (   0.6250000   0.3750000   0.3750000  )
        38           S   tau(  38) = (   0.6250000   0.1250000   0.1250000  )
        39           S   tau(  39) = (   0.8750000   0.3750000   0.1250000  )
        40           S   tau(  40) = (   0.8750000   0.1250000   0.3750000  )
        41           Zn  tau(  41) = (   0.5000000   0.0000000   0.5000000  )
        42           Zn  tau(  42) = (   0.5000000   0.2500000   0.7500000  )
        43           Zn  tau(  43) = (   0.7500000   0.0000000   0.7500000  )
        44           Zn  tau(  44) = (   0.7500000   0.2500000   0.5000000  )
        45           S   tau(  45) = (   0.6250000   0.3750000   0.8750000  )
        46           S   tau(  46) = (   0.6250000   0.1250000   0.6250000  )
        47           S   tau(  47) = (   0.8750000   0.3750000   0.6250000  )
        48           S   tau(  48) = (   0.8750000   0.1250000   0.8750000  )
        49           Zn  tau(  49) = (   0.5000000   0.5000000   0.0000000  )
        50           Zn  tau(  50) = (   0.5000000   0.7500000   0.2500000  )
        51           Zn  tau(  51) = (   0.7500000   0.5000000   0.2500000  )
        52           Zn  tau(  52) = (   0.7500000   0.7500000   0.0000000  )
        53           S   tau(  53) = (   0.6250000   0.8750000   0.3750000  )
        54           S   tau(  54) = (   0.6250000   0.6250000   0.1250000  )
        55           S   tau(  55) = (   0.8750000   0.8750000   0.1250000  )
        56           S   tau(  56) = (   0.8750000   0.6250000   0.3750000  )
        57           Cu  tau(  57) = (   0.5000000   0.5000000   0.5000000  )
        58           Zn  tau(  58) = (   0.5000000   0.7500000   0.7500000  )
        59           Zn  tau(  59) = (   0.7500000   0.5000000   0.7500000  )
        60           Zn  tau(  60) = (   0.7500000   0.7500000   0.5000000  )
        61           S   tau(  61) = (   0.6250000   0.8750000   0.8750000  )
        62           S   tau(  62) = (   0.8750000   0.8750000   0.6250000  )
        63           S   tau(  63) = (   0.8750000   0.6250000   0.8750000  )

   Crystallographic axes

     site n.     atom                  positions (cryst. coord.)
         1           Zn  tau(   1) = (  0.0000000  0.0000000  0.0000000  )
         2           Zn  tau(   2) = (  0.0000000  0.2500000  0.2500000  )
         3           Zn  tau(   3) = (  0.2500000  0.0000000  0.2500000  )
         4           Zn  tau(   4) = (  0.2500000  0.2500000  0.0000000  )
[...]
     atom  28 (R=0.089)  charge= 10.1632  magn= -0.0000
     atom  29 (R=0.089)  charge=  3.9991  magn= -0.0000
     atom  30 (R=0.089)  charge=  3.9983  magn=  0.0000
     atom  31 (R=0.089)  charge=  3.9951  magn=  0.0000
     atom  32 (R=0.089)  charge=  3.9951  magn=  0.0000
     atom  33 (R=0.089)  charge= 10.1654  magn=  0.0000
     atom  34 (R=0.089)  charge= 10.1634  magn= -0.0000
     atom  35 (R=0.089)  charge= 10.1640  magn=  0.0000
     atom  36 (R=0.089)  charge= 10.1640  magn=  0.0000
     atom  37 (R=0.089)  charge=  3.9806  magn=  0.0000
     atom  38 (R=0.089)  charge=  3.9991  magn= -0.0000
     atom  39 (R=0.089)  charge=  3.9994  magn= -0.0000
     atom  40 (R=0.089)  charge=  3.9994  magn= -0.0000
     atom  41 (R=0.089)  charge= 10.1621  magn= -0.0000
     atom  42 (R=0.089)  charge= 10.1632  magn= -0.0000
     atom  43 (R=0.089)  charge= 10.1626  magn= -0.0000
     atom  44 (R=0.089)  charge= 10.1632  magn= -0.0000
     atom  45 (R=0.089)  charge=  3.9951  magn=  0.0000
     atom  46 (R=0.089)  charge=  3.9983  magn=  0.0000
     atom  47 (R=0.089)  charge=  3.9951  magn=  0.0000
     atom  48 (R=0.089)  charge=  3.9991  magn= -0.0000
     atom  49 (R=0.089)  charge= 10.1621  magn= -0.0000
     atom  50 (R=0.089)  charge= 10.1632  magn= -0.0000
     atom  51 (R=0.089)  charge= 10.1632  magn= -0.0000
     atom  52 (R=0.089)  charge= 10.1626  magn= -0.0000
     atom  53 (R=0.089)  charge=  3.9951  magn=  0.0000
     atom  54 (R=0.089)  charge=  3.9983  magn=  0.0000
     atom  55 (R=0.089)  charge=  3.9991  magn= -0.0000
     atom  56 (R=0.089)  charge=  3.9951  magn=  0.0000
     atom  57 (R=0.089)  charge= 17.3656  magn=  0.0000
     atom  58 (R=0.089)  charge= 10.1280  magn= -0.0000
     atom  59 (R=0.089)  charge= 10.1280  magn= -0.0000
     atom  60 (R=0.089)  charge= 10.1280  magn= -0.0000
     atom  61 (R=0.089)  charge=  3.9961  magn= -0.0000
     atom  62 (R=0.089)  charge=  3.9961  magn= -0.0000
     atom  63 (R=0.089)  charge=  3.9961  magn= -0.0000

     End of self-consistent calculation

 ------ SPIN UP ------------

          k = 0.0000 0.0000 0.0000 (269825 PWs)   bands (ev):

  -104.3234 -61.7313 -61.7302 -61.7302  -7.6385  -7.1279  -7.1279  -7.1146
    -7.1146  -7.1052  -7.0546  -6.8272  -6.8272  -6.8257  -6.8150  -6.8051
    -6.8041  -6.8041  -6.8027  -6.8027  -6.7999  -6.7987  -6.7987  -6.6625
    -6.6625  -6.6260  -6.5072  -6.5042  -6.5042  -6.4738  -6.4728  -6.4728
    -6.2970  -6.1224  -6.1224  -0.9365  -0.9363  -0.9363  -0.9274  -0.9274
    -0.9229  -0.8779  -0.8779  -0.8611  -0.8576  -0.8576  -0.8485  -0.8161
    -0.8131  -0.8131  -0.8087  -0.8087  -0.7968  -0.7968  -0.7910  -0.7907
    -0.7907  -0.7898  -0.7734  -0.7701  -0.7701  -0.7676  -0.7640  -0.7595
    -0.7595  -0.7471  -0.7471  -0.7445  -0.7442  -0.7442  -0.7389  -0.7389
    -0.7380  -0.7351  -0.7315  -0.7306  -0.7306  -0.7261  -0.7261  -0.7143
    -0.7028  -0.7028  -0.7008  -0.6820  -0.6820  -0.6809  -0.6789  -0.6755
    -0.6755  -0.6394  -0.6178  -0.6178  -0.6169  -0.6164  -0.6164  -0.6025
    -0.6025  -0.6012  -0.5942  -0.5942  -0.5812  -0.5732  -0.5732  -0.5715
    -0.5715  -0.5535  -0.5519  -0.5519  -0.5386  -0.5386  -0.5379  -0.5307
    -0.5133  -0.4958  -0.4958  -0.4820  -0.4820  -0.4765  -0.4721  -0.4721
    -0.4705  -0.4705  -0.4701  -0.4683  -0.4543  -0.4543  -0.4403  -0.4320
    -0.4320  -0.4269  -0.4256  -0.4189  -0.4189  -0.4127  -0.4127  -0.4063
    -0.4063  -0.4018  -0.3953  -0.3953  -0.3913  -0.3900  -0.3900  -0.3893
    -0.3877  -0.3860  -0.3860  -0.3841  -0.3632  -0.3475  -0.3475  -0.3368
    -0.3368  -0.3295  -0.3217  -0.3217  -0.3142  -0.3142  -0.3118  -0.3060
    -0.2955  -0.2955  -0.2855  -0.2822  -0.2822  -0.2782  -0.2718  -0.2718
    -0.2513  -0.2193  -0.2090  -0.2090  -0.1942  -0.1942  -0.1927  -0.1814
    -0.1814  -0.1767  -0.1758  -0.1660  -0.1660  -0.1484  -0.1484  -0.1364
    -0.0572  -0.0145  -0.0145   0.0215   0.0215   0.0306   0.2149   0.2744
     0.3008   0.3008   0.8209   0.8307   0.8307   0.8756   0.8795   0.8795
     1.0225   1.0225   1.0891   1.2848   1.4277   1.4277   1.4661   1.4661
     1.4935   1.4981   1.4981   1.5047   1.6917   1.6917   2.0746   2.6268
     2.6993   2.6993   2.7028   2.7029   2.7083   2.7099   2.7099   2.7275
     2.7275   2.7368   2.7368   2.7426   2.7879   2.7879   2.8248   2.8248
     2.8713   2.8992   2.8992   2.9206   2.9309   2.9309   2.9388   3.0006
     3.0006   3.0619   3.1062   3.1062   3.2244   3.2366   3.2554   3.2554
     3.5877   3.5877   3.6528   4.0283   4.0283   4.1490   4.1561   4.1561
     4.1769   4.1884   4.1884   4.2029   4.2813   4.3255   4.3255   4.3637
     4.3637   4.4504   4.4504   4.4528   4.4533   4.4598   4.4598   4.4653
     4.4653   4.4679   4.4746   4.4800   4.4800   4.5255   4.5255   4.6383
     5.2052   5.2052   5.2282   5.6315   5.6480   5.6480   6.2406   6.2406
     6.5583   7.7576   8.5889   8.5889   8.6759   8.7515   8.8196   8.8196
     8.9310   8.9310   9.0893   9.4657   9.4701   9.4701   9.4968   9.8155
     9.8155   9.8950   9.9218   9.9218   9.9411   9.9678   9.9682   9.9682
     9.9759   9.9759  10.1299  10.1299  10.1305  10.1517  10.1517  10.1808
    10.1808  10.2059  10.2814  10.6218  10.6218  10.6810  11.0370  11.1196
    11.1196  11.1640  11.1640  11.2792  11.2891  11.2891  11.3018  11.6350
    11.6350  11.6760  11.7942  11.8206  11.8206  11.8298  11.9839  11.9840
    11.9923  11.9999  12.0004

     occupation numbers
     1.0000   1.0000   1.0000   1.0000   1.0000   1.0000   1.0000   1.0000
     1.0000   1.0000   1.0000   1.0000   1.0000   1.0000   1.0000   1.0000
     1.0000   1.0000   1.0000   1.0000   1.0000   1.0000   1.0000   1.0000
     1.0000   1.0000   1.0000   1.0000   1.0000   1.0000   1.0000   1.0000
     1.0000   1.0000   1.0000   1.0000   1.0000   1.0000   1.0000   1.0000
     1.0000   1.0000   1.0000   1.0000   1.0000   1.0000   1.0000   1.0000
     1.0000   1.0000   1.0000   1.0000   1.0000   1.0000   1.0000   1.0000
     1.0000   1.0000   1.0000   1.0000   1.0000   1.0000   1.0000   1.0000
     1.0000   1.0000   1.0000   1.0000   1.0000   1.0000   1.0000   1.0000
     1.0000   1.0000   1.0000   1.0000   1.0000   1.0000   1.0000   1.0000
     1.0000   1.0000   1.0000   1.0000   1.0000   1.0000   1.0000   1.0000
     1.0000   1.0000   1.0000   1.0000   1.0000   1.0000   1.0000   1.0000
     1.0000   1.0000   1.0000   1.0000   1.0000   1.0000   1.0000   1.0000
     1.0000   1.0000   1.0000   1.0000   1.0000   1.0000   1.0000   1.0000
     1.0000   1.0000   1.0000   1.0000   1.0000   1.0000   1.0000   1.0000
     1.0000   1.0000   1.0000   1.0000   1.0000   1.0000   1.0000   1.0000
     1.0000   1.0000   1.0000   1.0000   1.0000   1.0000   1.0000   1.0000
     1.0000   1.0000   1.0000   1.0000   1.0000   1.0000   1.0000   1.0000
     1.0000   1.0000   1.0000   1.0000   1.0000   1.0000   1.0000   1.0000
     1.0000   1.0000   1.0000   1.0000   1.0000   1.0000   1.0000   1.0000
     1.0000   1.0000   1.0000   1.0000   1.0000   1.0000   1.0000   1.0000
     1.0000   1.0000   1.0000   1.0000   1.0000   1.0000   1.0000   1.0000
     1.0000   1.0000   1.0000   1.0000   1.0000   1.0000   1.0000   1.0000
     1.0000   1.0000   1.0000   1.0000   1.0000   1.0000   1.0000   1.0000
     1.0000   1.0000   1.0000   1.0000   1.0000   1.0000   1.0000   1.0000
     1.0000   1.0000   1.0000   1.0000   1.0000   1.0000   1.0000   1.0000
     1.0000   1.0000   1.0000   1.0000   1.0000   1.0000   1.0000   1.0000
     1.0000   1.0000   1.0000   1.0000   1.0000   1.0000   1.0000   1.0000
     1.0000   1.0000   1.0000   1.0000   1.0000   1.0000   1.0000   1.0000
     1.0000   1.0000   1.0000   1.0000   1.0000   1.0000   1.0000   1.0000
     1.0000   1.0000   1.0000   1.0000   1.0000   1.0000   1.0000   1.0000
     1.0000   1.0000   1.0000   1.0000   1.0000   1.0000   1.0000   1.0000
     1.0000   1.0000   1.0000   1.0000   1.0000   1.0000   1.0000   1.0000
     1.0000   1.0000   1.0000   1.0000   1.0000   1.0000   1.0000   1.0000
     1.0000   1.0000   1.0000   1.0000   1.0000   1.0000   1.0000   1.0000
     1.0000   1.0000   1.0000   1.0000   1.0000   1.0000   1.0000   1.0000
     1.0000   0.0000   0.0000   0.0000   0.0000   0.0000   0.0000   0.0000
     0.0000   0.0000   0.0000   0.0000   0.0000   0.0000   0.0000   0.0000
     0.0000   0.0000   0.0000   0.0000   0.0000   0.0000   0.0000   0.0000
     0.0000   0.0000   0.0000   0.0000   0.0000   0.0000   0.0000   0.0000
     0.0000   0.0000   0.0000   0.0000   0.0000   0.0000   0.0000   0.0000
     0.0000   0.0000   0.0000   0.0000   0.0000   0.0000   0.0000   0.0000
     0.0000   0.0000   0.0000   0.0000   0.0000   0.0000   0.0000   0.0000
     0.0000   0.0000   0.0000

[...]

          k =-0.5000-0.5000-0.5000 (269968 PWs)   bands (ev):

[...]

 ------ SPIN DOWN ----------

[...]

          k =-0.2500 0.0000 0.2500 (269929 PWs)   bands (ev):

[...]

          k = 0.2500-0.2500-0.5000 (269988 PWs)   bands (ev):

  -104.3234 -61.7313 -61.7302 -61.7302  -7.4653  -7.3908  -7.2171  -7.2144
    -7.1518  -7.1096  -7.0220  -6.8979  -6.8410  -6.8397  -6.8000  -6.7816
    -6.7711  -6.7656  -6.6988  -6.6857  -6.6789  -6.6746  -6.6547  -6.6319
    -6.6279  -6.5959  -6.5884  -6.5748  -6.5579  -6.5437  -6.5400  -6.5372
    -6.2728  -6.1513  -6.1410  -0.9116  -0.8964  -0.8961  -0.8893  -0.8748
    -0.8654  -0.8547  -0.8506  -0.8466  -0.8429  -0.8379  -0.8338  -0.8297
    -0.8290  -0.8263  -0.8235  -0.8225  -0.8173  -0.8158  -0.8136  -0.8092
    -0.8041  -0.8007  -0.7964  -0.7932  -0.7903  -0.7885  -0.7852  -0.7790
    -0.7770  -0.7722  -0.7693  -0.7666  -0.7597  -0.7589  -0.7566  -0.7525
    -0.7495  -0.7472  -0.7434  -0.7393  -0.7338  -0.7244  -0.7200  -0.7137
    -0.7117  -0.7031  -0.6965  -0.6879  -0.6821  -0.6769  -0.6730  -0.6674
    -0.6587  -0.6547  -0.6528  -0.6432  -0.6415  -0.6345  -0.6286  -0.6271
    -0.6196  -0.6113  -0.6088  -0.6017  -0.5979  -0.5894  -0.5876  -0.5782
    -0.5744  -0.5558  -0.5527  -0.5498  -0.5368  -0.5265  -0.5202  -0.5117
    -0.5087  -0.5042  -0.4989  -0.4976  -0.4889  -0.4853  -0.4768  -0.4730
    -0.4633  -0.4596  -0.4535  -0.4524  -0.4447  -0.4390  -0.4309  -0.4286
    -0.4236  -0.4231  -0.4174  -0.4147  -0.4132  -0.4081  -0.4075  -0.4015
    -0.4008  -0.3990  -0.3965  -0.3939  -0.3920  -0.3912  -0.3862  -0.3828
    -0.3774  -0.3743  -0.3652  -0.3626  -0.3580  -0.3460  -0.3433  -0.3393
    -0.3279  -0.3206  -0.3145  -0.3083  -0.3007  -0.2995  -0.2972  -0.2912
    -0.2856  -0.2835  -0.2767  -0.2731  -0.2714  -0.2664  -0.2607  -0.2527
    -0.2486  -0.2363  -0.2229  -0.2132  -0.2019  -0.1964  -0.1887  -0.1855
    -0.1773  -0.1716  -0.1594  -0.1515  -0.1470  -0.1293  -0.1218  -0.1171
    -0.1026  -0.0945  -0.0857  -0.0658  -0.0607  -0.0484   0.5074   0.5909
     0.7192   0.7516   0.7908   0.8058   0.8214   0.8551   0.9059   0.9115
     0.9278   0.9547   0.9734   0.9955   1.0383   1.0662   1.1516   1.3451
     1.4030   1.4896   1.5190   1.5609   1.5927   1.6750   1.8117   2.0683
     2.4541   2.5166   2.5215   2.5465   2.5552   2.5715   2.6207   2.6842
     2.7149   2.7393   2.7883   2.7933   2.8641   2.9280   2.9697   3.0003
     3.1933   3.2439   3.3146   3.3359   3.3926   3.4063   3.4165   3.4423
     3.4599   3.4758   3.4866   3.5308   3.5703   3.5875   3.5930   3.6092
     3.6221   3.6287   3.6316   3.6663   3.7096   3.7102   3.7485   3.7656
     3.7913   3.8698   3.9015   3.9625   3.9771   4.0117   4.0650   4.1077
     4.1272   4.1356   4.1492   4.2638   4.3164   4.3391   4.3520   4.3778
     4.4247   4.5381   4.6685   4.7070   4.7420   4.8101   4.8153   4.8761
     4.9391   4.9708   5.0007   5.6193   5.6448   5.6512   6.1754   6.2039
     6.9482   8.3316   8.4297   8.8677   8.9231   9.0229   9.0698   9.2126
     9.2734   9.3125   9.3887   9.4782   9.5034   9.5395   9.5606   9.5749
     9.6331   9.6816   9.6973   9.7412   9.7725   9.8115   9.8250   9.8884
     9.9287   9.9511  10.0108  10.0365  10.0515  10.1234  10.1645  10.2685
    10.2835  10.3730  10.4174  10.5596  10.6515  10.6955  10.7085  10.7785
    10.8084  10.9006  11.0006  11.0905  11.1650  11.2120  11.3108  11.3706
    11.4079  11.4292  11.4418  11.4822  11.5189  11.5460  11.5709  11.5857
    11.6065  11.6104  11.6402

     occupation numbers
     1.0000   1.0000   1.0000   1.0000   1.0000   1.0000   1.0000   1.0000
     1.0000   1.0000   1.0000   1.0000   1.0000   1.0000   1.0000   1.0000
     1.0000   1.0000   1.0000   1.0000   1.0000   1.0000   1.0000   1.0000
     1.0000   1.0000   1.0000   1.0000   1.0000   1.0000   1.0000   1.0000
     1.0000   1.0000   1.0000   1.0000   1.0000   1.0000   1.0000   1.0000
     1.0000   1.0000   1.0000   1.0000   1.0000   1.0000   1.0000   1.0000
     1.0000   1.0000   1.0000   1.0000   1.0000   1.0000   1.0000   1.0000
     1.0000   1.0000   1.0000   1.0000   1.0000   1.0000   1.0000   1.0000
     1.0000   1.0000   1.0000   1.0000   1.0000   1.0000   1.0000   1.0000
     1.0000   1.0000   1.0000   1.0000   1.0000   1.0000   1.0000   1.0000
     1.0000   1.0000   1.0000   1.0000   1.0000   1.0000   1.0000   1.0000
     1.0000   1.0000   1.0000   1.0000   1.0000   1.0000   1.0000   1.0000
     1.0000   1.0000   1.0000   1.0000   1.0000   1.0000   1.0000   1.0000
     1.0000   1.0000   1.0000   1.0000   1.0000   1.0000   1.0000   1.0000
     1.0000   1.0000   1.0000   1.0000   1.0000   1.0000   1.0000   1.0000
     1.0000   1.0000   1.0000   1.0000   1.0000   1.0000   1.0000   1.0000
     1.0000   1.0000   1.0000   1.0000   1.0000   1.0000   1.0000   1.0000
     1.0000   1.0000   1.0000   1.0000   1.0000   1.0000   1.0000   1.0000
     1.0000   1.0000   1.0000   1.0000   1.0000   1.0000   1.0000   1.0000
     1.0000   1.0000   1.0000   1.0000   1.0000   1.0000   1.0000   1.0000
     1.0000   1.0000   1.0000   1.0000   1.0000   1.0000   1.0000   1.0000
     1.0000   1.0000   1.0000   1.0000   1.0000   1.0000   1.0000   1.0000
     1.0000   1.0000   1.0000   1.0000   1.0000   1.0000   1.0000   1.0000
     1.0000   1.0000   1.0000   1.0000   1.0000   1.0000   1.0000   1.0000
     1.0000   1.0000   1.0000   1.0000   1.0000   1.0000   1.0000   1.0000
     1.0000   1.0000   1.0000   1.0000   1.0000   1.0000   1.0000   1.0000
     1.0000   1.0000   1.0000   1.0000   1.0000   1.0000   1.0000   1.0000
     1.0000   1.0000   1.0000   1.0000   1.0000   1.0000   1.0000   1.0000
     1.0000   1.0000   1.0000   1.0000   1.0000   1.0000   1.0000   1.0000
     1.0000   1.0000   1.0000   1.0000   1.0000   1.0000   1.0000   1.0000
     1.0000   1.0000   1.0000   1.0000   1.0000   1.0000   1.0000   1.0000
     1.0000   1.0000   1.0000   1.0000   1.0000   1.0000   1.0000   1.0000
     1.0000   1.0000   1.0000   1.0000   1.0000   1.0000   1.0000   1.0000
     1.0000   1.0000   1.0000   1.0000   1.0000   1.0000   1.0000   1.0000
     1.0000   1.0000   1.0000   1.0000   1.0000   1.0000   1.0000   1.0000
     1.0000   1.0000   1.0000   1.0000   1.0000   1.0000   1.0000   1.0000
     1.0000   0.0000   0.0000   0.0000   0.0000   0.0000   0.0000   0.0000
     0.0000   0.0000   0.0000   0.0000   0.0000   0.0000   0.0000   0.0000
     0.0000   0.0000   0.0000   0.0000   0.0000   0.0000   0.0000   0.0000
     0.0000   0.0000   0.0000   0.0000   0.0000   0.0000   0.0000   0.0000
     0.0000   0.0000   0.0000   0.0000   0.0000   0.0000   0.0000   0.0000
     0.0000   0.0000   0.0000   0.0000   0.0000   0.0000   0.0000   0.0000
     0.0000   0.0000   0.0000   0.0000   0.0000   0.0000   0.0000   0.0000
     0.0000   0.0000   0.0000

     the Fermi energy is     7.5820 ev

!    total energy              =  -10100.39480102 Ry
     total all-electron energy =   -139418.923849 Ry
     estimated scf accuracy    <          9.3E-10 Ry
     smearing contrib. (-TS)   =      -0.00000000 Ry
     internal energy E=F+TS    =  -10100.39480102 Ry

     The total energy is F=E-TS. E is the sum of the following terms:
     one-electron contribution =   -3081.53791472 Ry
     hartree contribution      =    2113.96867156 Ry
     xc contribution           =   -1661.13029714 Ry
     ewald contribution        =   -2984.70201120 Ry
     one-center paw contrib.   =   -4486.99324952 Ry
      -> PAW hartree energy AE =     123.39253929 Ry
      -> PAW hartree energy PS =    -122.75106787 Ry
      -> PAW xc energy AE      =    -143.21853362 Ry
      -> PAW xc energy PS      =      47.15695088 Ry
      -> total E_H with PAW    =    2114.61014298 Ry
      -> total E_XC with PAW   =   -1757.19187987 Ry

     total magnetization       =     0.00 Bohr mag/cell
     absolute magnetization    =     0.00 Bohr mag/cell

     convergence has been achieved in  14 iterations

     Writing all to output data dir ./out/Cu_vac_qn1_unrlxd.save/

     General routines

     Parallel routines

     PAW routines

   This run was terminated on:   3:49:59   5Jul2024

   JOB DONE.