     Program PWSCF v.7.2 starts on  7Jul2024 at  1:25:55

     Reading input from 1.Fe_vac_in_ZnS.scf.qn2.unrlxd.in

     Current dimensions of program PWSCF are:
     Max number of different atomic species (ntypx) = 10
     Max number of k-points (npk) =  40000
     Max angular momentum in pseudopotentials (lmaxx) =  4
     file S.pbe-n-kjpaw_psl.1.0.0.UPF: wavefunction(s)  3S 3P renormalized
     file Zn.pbe-dnl-kjpaw_psl.1.0.0.UPF: wavefunction(s)  4S 3D renormalized
     file Fe.pbe-spn-kjpaw_psl.1.0.0.UPF: wavefunction(s)  3P 3D renormalized

     K-points division:     npool     =       7
     R & G space division:  proc/nbgrp/npool/nimage =     112
     Subspace diagonalization in iterative solution of the eigenvalue problem:
     one sub-group per band group will be used

     Using Slab Decomposition

     bravais-lattice index     =            1
     lattice parameter (alat)  =      20.5686  a.u.
     unit-cell volume          =    8701.8437 (a.u.)^3
     number of atoms/cell      =           63
     number of atomic types    =            3
     number of electrons       =       576.00
     number of Kohn-Sham states=          346
     kinetic-energy cutoff     =     150.0000  Ry
     charge density cutoff     =     600.0000  Ry
     scf convergence threshold =      1.0E-08
     mixing beta               =       0.7000
     number of iterations used =            8  plain     mixing
     Exchange-correlation= SLA  PW   PBX  PBC
                           (   1   4   3   4   0   0   0)

     celldm(1)=  20.568554  celldm(2)=   0.000000  celldm(3)=   0.000000
     celldm(4)=   0.000000  celldm(5)=   0.000000  celldm(6)=   0.000000

     crystal axes: (cart. coord. in units of alat)
               a(1) = (   1.000000   0.000000   0.000000 )
               a(2) = (   0.000000   1.000000   0.000000 )
               a(3) = (   0.000000   0.000000   1.000000 )

     reciprocal axes: (cart. coord. in units 2 pi/alat)
               b(1) = (  1.000000  0.000000  0.000000 )
               b(2) = (  0.000000  1.000000  0.000000 )
               b(3) = (  0.000000  0.000000  1.000000 )

     PseudoPot. # 1 for S  read from file:
     /arf/home/amuhaymin/pseudo/S.pbe-n-kjpaw_psl.1.0.0.UPF
     MD5 check sum: fb45dfebcf3e72a4e1bd4a866ec2e262
     Pseudo is Projector augmented-wave + core cor, Zval =  6.0
     Generated using &quot;atomic&quot; code by A. Dal Corso  v.6.3
     Shape of augmentation charge: PSQ
     Using radial grid of 1151 points,  6 beta functions with:
                l(1) =   0
                l(2) =   0
                l(3) =   1
                l(4) =   1
                l(5) =   2
                l(6) =   2
     Q(r) pseudized with 0 coefficients

     PseudoPot. # 2 for Zn read from file:
     /arf/home/amuhaymin/pseudo/Zn.pbe-dnl-kjpaw_psl.1.0.0.UPF
     MD5 check sum: c608214d9520ac179f507641260889e3
     Pseudo is Projector augmented-wave + core cor, Zval = 12.0
     Generated using &quot;atomic&quot; code by A. Dal Corso  v.6.2.2
     Shape of augmentation charge: PSQ
     Using radial grid of 1201 points,  6 beta functions with:
                l(1) =   0
                l(2) =   0
                l(3) =   1
                l(4) =   1
                l(5) =   2
                l(6) =   2
     Q(r) pseudized with 0 coefficients

     PseudoPot. # 3 for Fe read from file:
     /arf/home/amuhaymin/pseudo/Fe.pbe-spn-kjpaw_psl.1.0.0.UPF
     MD5 check sum: fc81f059e5c5069939230b1155715ae8
     Pseudo is Projector augmented-wave + core cor, Zval = 16.0
     Generated using &quot;atomic&quot; code by A. Dal Corso  v.6.3
     Shape of augmentation charge: PSQ
     Using radial grid of 1191 points,  6 beta functions with:
                l(1) =   0
                l(2) =   0
                l(3) =   1
                l(4) =   1
                l(5) =   2
                l(6) =   2
     Q(r) pseudized with 0 coefficients

     atomic species   valence    mass     pseudopotential
        S              6.00    32.06500     S ( 1.00)
        Zn            12.00    65.38000     Zn( 1.00)
        Fe            16.00    63.54600     Fe( 1.00)

     Starting magnetic structure
     atomic species   magnetization
        S            0.000
        Zn           0.000
        Fe           0.125

      6 Sym. Ops. (no inversion) found

                                    s                        frac. trans.

      isym =  1     identity

 cryst.   s( 1) = (     1          0          0      )
                  (     0          1          0      )
                  (     0          0          1      )

 cart.    s( 1) = (  1.0000000  0.0000000  0.0000000 )
                  (  0.0000000  1.0000000  0.0000000 )
                  (  0.0000000  0.0000000  1.0000000 )

      isym =  2     120 deg rotation - cart. axis [-1,-1,-1]

[...]

      isym =  3     120 deg rotation - cart. axis [1,1,1]

[...]

      isym =  4     inv. 180 deg rotation - cart. axis [1,-1,0]

[...]

      isym =  6     inv. 180 deg rotation - cart. axis [0,1,-1]

 cryst.   s( 6) = (     1          0          0      )
                  (     0          0          1      )
                  (     0          1          0      )

 cart.    s( 6) = (  1.0000000  0.0000000  0.0000000 )
                  (  0.0000000  0.0000000  1.0000000 )
                  (  0.0000000  1.0000000  0.0000000 )

     point group C_3v (3m)
     there are  3 classes
     the character table:

       E     2C3   3s_v
A_1    1.00  1.00  1.00
A_2    1.00  1.00 -1.00
E      2.00 -1.00  0.00

     the symmetry operations in each class and the name of the first element:

     E        1
          identity
     2C3      2    3
          120 deg rotation - cart. axis [-1,-1,-1]
     3s_v     4    5    6
          inv. 180 deg rotation - cart. axis [1,-1,0]

   Cartesian axes

     site n.     atom                  positions (alat units)
         1           Zn  tau(   1) = (   0.0000000   0.0000000   0.0000000  )
         2           Zn  tau(   2) = (   0.0000000   0.2500000   0.2500000  )
         3           Zn  tau(   3) = (   0.2500000   0.0000000   0.2500000  )
         4           Zn  tau(   4) = (   0.2500000   0.2500000   0.0000000  )
         5           S   tau(   5) = (   0.1250000   0.3750000   0.3750000  )
         6           S   tau(   6) = (   0.1250000   0.1250000   0.1250000  )
         7           S   tau(   7) = (   0.3750000   0.3750000   0.1250000  )
         8           S   tau(   8) = (   0.3750000   0.1250000   0.3750000  )
         9           Zn  tau(   9) = (   0.0000000   0.0000000   0.5000000  )
        10           Zn  tau(  10) = (   0.0000000   0.2500000   0.7500000  )
        11           Zn  tau(  11) = (   0.2500000   0.0000000   0.7500000  )
        12           Zn  tau(  12) = (   0.2500000   0.2500000   0.5000000  )
        13           S   tau(  13) = (   0.1250000   0.3750000   0.8750000  )
        14           S   tau(  14) = (   0.1250000   0.1250000   0.6250000  )
        15           S   tau(  15) = (   0.3750000   0.3750000   0.6250000  )
        16           S   tau(  16) = (   0.3750000   0.1250000   0.8750000  )
        17           Zn  tau(  17) = (   0.0000000   0.5000000   0.0000000  )
        18           Zn  tau(  18) = (   0.0000000   0.7500000   0.2500000  )
        19           Zn  tau(  19) = (   0.2500000   0.5000000   0.2500000  )
        20           Zn  tau(  20) = (   0.2500000   0.7500000   0.0000000  )
        21           S   tau(  21) = (   0.1250000   0.8750000   0.3750000  )
        22           S   tau(  22) = (   0.1250000   0.6250000   0.1250000  )
        23           S   tau(  23) = (   0.3750000   0.8750000   0.1250000  )
        24           S   tau(  24) = (   0.3750000   0.6250000   0.3750000  )
        25           Zn  tau(  25) = (   0.0000000   0.5000000   0.5000000  )
        26           Zn  tau(  26) = (   0.0000000   0.7500000   0.7500000  )
        27           Zn  tau(  27) = (   0.2500000   0.5000000   0.7500000  )
        28           Zn  tau(  28) = (   0.2500000   0.7500000   0.5000000  )
        29           S   tau(  29) = (   0.1250000   0.8750000   0.8750000  )
        30           S   tau(  30) = (   0.1250000   0.6250000   0.6250000  )
        31           S   tau(  31) = (   0.3750000   0.8750000   0.6250000  )
        32           S   tau(  32) = (   0.3750000   0.6250000   0.8750000  )
        33           Zn  tau(  33) = (   0.5000000   0.0000000   0.0000000  )
        34           Zn  tau(  34) = (   0.5000000   0.2500000   0.2500000  )
        35           Zn  tau(  35) = (   0.7500000   0.0000000   0.2500000  )
        36           Zn  tau(  36) = (   0.7500000   0.2500000   0.0000000  )
        37           S   tau(  37) = (   0.6250000   0.3750000   0.3750000  )
        38           S   tau(  38) = (   0.6250000   0.1250000   0.1250000  )
        39           S   tau(  39) = (   0.8750000   0.3750000   0.1250000  )
        40           S   tau(  40) = (   0.8750000   0.1250000   0.3750000  )
        41           Zn  tau(  41) = (   0.5000000   0.0000000   0.5000000  )
        42           Zn  tau(  42) = (   0.5000000   0.2500000   0.7500000  )
        43           Zn  tau(  43) = (   0.7500000   0.0000000   0.7500000  )
        44           Zn  tau(  44) = (   0.7500000   0.2500000   0.5000000  )
        45           S   tau(  45) = (   0.6250000   0.3750000   0.8750000  )
        46           S   tau(  46) = (   0.6250000   0.1250000   0.6250000  )
        47           S   tau(  47) = (   0.8750000   0.3750000   0.6250000  )
        48           S   tau(  48) = (   0.8750000   0.1250000   0.8750000  )
        49           Zn  tau(  49) = (   0.5000000   0.5000000   0.0000000  )
        50           Zn  tau(  50) = (   0.5000000   0.7500000   0.2500000  )
        51           Zn  tau(  51) = (   0.7500000   0.5000000   0.2500000  )
        52           Zn  tau(  52) = (   0.7500000   0.7500000   0.0000000  )
        53           S   tau(  53) = (   0.6250000   0.8750000   0.3750000  )
        54           S   tau(  54) = (   0.6250000   0.6250000   0.1250000  )
        55           S   tau(  55) = (   0.8750000   0.8750000   0.1250000  )
        56           S   tau(  56) = (   0.8750000   0.6250000   0.3750000  )
        57           Fe  tau(  57) = (   0.5000000   0.5000000   0.5000000  )
        58           Zn  tau(  58) = (   0.5000000   0.7500000   0.7500000  )
        59           Zn  tau(  59) = (   0.7500000   0.5000000   0.7500000  )
        60           Zn  tau(  60) = (   0.7500000   0.7500000   0.5000000  )
        61           S   tau(  61) = (   0.6250000   0.8750000   0.8750000  )
        62           S   tau(  62) = (   0.8750000   0.8750000   0.6250000  )
        63           S   tau(  63) = (   0.8750000   0.6250000   0.8750000  )

   Crystallographic axes

     site n.     atom                  positions (cryst. coord.)
         1           Zn  tau(   1) = (  0.0000000  0.0000000  0.0000000  )
         2           Zn  tau(   2) = (  0.0000000  0.2500000  0.2500000  )
         3           Zn  tau(   3) = (  0.2500000  0.0000000  0.2500000  )
         4           Zn  tau(   4) = (  0.2500000  0.2500000  0.0000000  )
[...]
     atom  28 (R=0.089)  charge= 10.1695  magn=  0.0015
     atom  29 (R=0.089)  charge=  4.0048  magn= -0.0003
     atom  30 (R=0.089)  charge=  4.0043  magn= -0.0005
     atom  31 (R=0.089)  charge=  4.0007  magn= -0.0011
     atom  32 (R=0.089)  charge=  4.0007  magn= -0.0011
     atom  33 (R=0.089)  charge= 10.1698  magn=  0.0003
     atom  34 (R=0.089)  charge= 10.1702  magn= -0.0007
     atom  35 (R=0.089)  charge= 10.1698  magn= -0.0012
     atom  36 (R=0.089)  charge= 10.1698  magn= -0.0012
     atom  37 (R=0.089)  charge=  3.9977  magn=  0.0114
     atom  38 (R=0.089)  charge=  4.0049  magn= -0.0008
     atom  39 (R=0.089)  charge=  4.0048  magn=  0.0015
     atom  40 (R=0.089)  charge=  4.0048  magn=  0.0015
     atom  41 (R=0.089)  charge= 10.1680  magn=  0.0000
     atom  42 (R=0.089)  charge= 10.1695  magn=  0.0015
     atom  43 (R=0.089)  charge= 10.1678  magn=  0.0003
     atom  44 (R=0.089)  charge= 10.1695  magn=  0.0015
     atom  45 (R=0.089)  charge=  4.0007  magn= -0.0011
     atom  46 (R=0.089)  charge=  4.0043  magn= -0.0005
     atom  47 (R=0.089)  charge=  4.0007  magn= -0.0011
     atom  48 (R=0.089)  charge=  4.0048  magn= -0.0003
     atom  49 (R=0.089)  charge= 10.1680  magn=  0.0000
     atom  50 (R=0.089)  charge= 10.1695  magn=  0.0015
     atom  51 (R=0.089)  charge= 10.1695  magn=  0.0015
     atom  52 (R=0.089)  charge= 10.1678  magn=  0.0003
     atom  53 (R=0.089)  charge=  4.0007  magn= -0.0011
     atom  54 (R=0.089)  charge=  4.0043  magn= -0.0005
     atom  55 (R=0.089)  charge=  4.0048  magn= -0.0003
     atom  56 (R=0.089)  charge=  4.0007  magn= -0.0011
     atom  57 (R=0.089)  charge= 14.0791  magn=  2.5981
     atom  58 (R=0.089)  charge= 10.1364  magn= -0.0049
     atom  59 (R=0.089)  charge= 10.1364  magn= -0.0049
     atom  60 (R=0.089)  charge= 10.1364  magn= -0.0049
     atom  61 (R=0.089)  charge=  4.0017  magn= -0.0008
     atom  62 (R=0.089)  charge=  4.0017  magn= -0.0008
     atom  63 (R=0.089)  charge=  4.0017  magn= -0.0008

     End of self-consistent calculation

 ------ SPIN UP ------------

          k = 0.0000 0.0000 0.0000 (269825 PWs)   bands (ev):

   -80.0775 -46.1988 -46.1988 -46.1562  -7.6275  -7.1117  -7.1117  -7.1004
    -7.1004  -7.0932  -7.0408  -6.8208  -6.8208  -6.8156  -6.8105  -6.7910
    -6.7910  -6.7855  -6.7827  -6.7827  -6.7698  -6.7683  -6.7683  -6.6427
    -6.6427  -6.6035  -6.4987  -6.4909  -6.4909  -6.4472  -6.4472  -6.4443
    -6.3601  -6.1909  -6.1909  -0.9240  -0.9240  -0.9237  -0.9096  -0.9096
    -0.9043  -0.8639  -0.8639  -0.8475  -0.8401  -0.8401  -0.8325  -0.8024
    -0.7970  -0.7970  -0.7944  -0.7944  -0.7818  -0.7818  -0.7729  -0.7729
    -0.7720  -0.7692  -0.7629  -0.7544  -0.7544  -0.7507  -0.7499  -0.7399
    -0.7399  -0.7369  -0.7369  -0.7282  -0.7270  -0.7270  -0.7264  -0.7219
    -0.7219  -0.7134  -0.7134  -0.7120  -0.7103  -0.7015  -0.7015  -0.6916
    -0.6903  -0.6899  -0.6899  -0.6642  -0.6589  -0.6589  -0.6553  -0.6553
    -0.6514  -0.6355  -0.6074  -0.6074  -0.6007  -0.6007  -0.6006  -0.5892
    -0.5892  -0.5833  -0.5771  -0.5771  -0.5667  -0.5605  -0.5605  -0.5547
    -0.5547  -0.5426  -0.5426  -0.5329  -0.5300  -0.5117  -0.5117  -0.5108
    -0.4812  -0.4797  -0.4797  -0.4639  -0.4639  -0.4637  -0.4557  -0.4557
    -0.4538  -0.4534  -0.4534  -0.4517  -0.4356  -0.4356  -0.4278  -0.4228
    -0.4228  -0.4198  -0.4118  -0.3978  -0.3978  -0.3905  -0.3905  -0.3881
    -0.3828  -0.3828  -0.3792  -0.3792  -0.3749  -0.3749  -0.3740  -0.3731
    -0.3665  -0.3620  -0.3620  -0.3437  -0.3380  -0.3380  -0.3155  -0.3155
    -0.3143  -0.3103  -0.3072  -0.3072  -0.3053  -0.2968  -0.2956  -0.2956
    -0.2883  -0.2883  -0.2775  -0.2775  -0.2753  -0.2750  -0.2612  -0.2612
    -0.2389  -0.1681  -0.1606  -0.1606  -0.1416  -0.1138  -0.1138  -0.1068
    -0.1068  -0.0962  -0.0894  -0.0676  -0.0676  -0.0539  -0.0457  -0.0457
    -0.0042   0.0136   0.0136   0.0606   0.0606   0.0764   0.2180   0.2887
     0.3152   0.3152   0.8325   0.8443   0.8443   0.8773   0.8773   0.8838
     1.0424   1.0424   1.1125   1.3072   1.4236   1.4236   1.4808   1.4808
     1.5020   1.5030   1.5030   1.5096   1.7214   1.7214   2.0890   2.6457
     2.6878   2.6878   2.7059   2.7088   2.7088   2.7090   2.7224   2.7332
     2.7332   2.7440   2.7440   2.7462   2.7848   2.7848   2.8350   2.8350
     2.8788   2.9003   2.9003   2.9294   2.9392   2.9420   2.9420   2.9909
     2.9909   3.0732   3.1121   3.1121   3.2441   3.2521   3.2534   3.2534
     3.5959   3.5959   3.6501   3.9713   3.9713   4.1642   4.1744   4.1744
     4.1914   4.1984   4.1984   4.1986   4.2977   4.3269   4.3269   4.3641
     4.3641   4.4592   4.4592   4.4603   4.4646   4.4721   4.4721   4.4798
     4.4798   4.4846   4.4981   4.4996   4.4996   4.5417   4.5417   4.6253
     5.2232   5.2232   5.2340   5.7136   6.4435   6.4435   6.4953   6.4953
     6.6391   7.7642   8.6147   8.6147   8.6820   8.7405   8.8333   8.8333
     8.9798   8.9798   9.1023   9.4621   9.4808   9.4808   9.5270   9.8181
     9.8181   9.9021   9.9248   9.9248   9.9372   9.9683   9.9683   9.9745
     9.9863   9.9863  10.1331  10.1442  10.1442  10.1521  10.1521  10.1814
    10.1814  10.2083  10.3785  10.6389  10.6389  10.6846  11.0253  11.1187
    11.1187  11.1588  11.1588  11.3027  11.3027  11.3057  11.3085  11.6373
    11.6374  11.6915  11.7985  11.8290  11.8290  11.8507  11.9782  11.9794
    11.9797  11.9951

     occupation numbers
     1.0000   1.0000   1.0000   1.0000   1.0000   1.0000   1.0000   1.0000
     1.0000   1.0000   1.0000   1.0000   1.0000   1.0000   1.0000   1.0000
     1.0000   1.0000   1.0000   1.0000   1.0000   1.0000   1.0000   1.0000
     1.0000   1.0000   1.0000   1.0000   1.0000   1.0000   1.0000   1.0000
     1.0000   1.0000   1.0000   1.0000   1.0000   1.0000   1.0000   1.0000
     1.0000   1.0000   1.0000   1.0000   1.0000   1.0000   1.0000   1.0000
     1.0000   1.0000   1.0000   1.0000   1.0000   1.0000   1.0000   1.0000
     1.0000   1.0000   1.0000   1.0000   1.0000   1.0000   1.0000   1.0000
     1.0000   1.0000   1.0000   1.0000   1.0000   1.0000   1.0000   1.0000
     1.0000   1.0000   1.0000   1.0000   1.0000   1.0000   1.0000   1.0000
     1.0000   1.0000   1.0000   1.0000   1.0000   1.0000   1.0000   1.0000
     1.0000   1.0000   1.0000   1.0000   1.0000   1.0000   1.0000   1.0000
     1.0000   1.0000   1.0000   1.0000   1.0000   1.0000   1.0000   1.0000
     1.0000   1.0000   1.0000   1.0000   1.0000   1.0000   1.0000   1.0000
     1.0000   1.0000   1.0000   1.0000   1.0000   1.0000   1.0000   1.0000
     1.0000   1.0000   1.0000   1.0000   1.0000   1.0000   1.0000   1.0000
     1.0000   1.0000   1.0000   1.0000   1.0000   1.0000   1.0000   1.0000
     1.0000   1.0000   1.0000   1.0000   1.0000   1.0000   1.0000   1.0000
     1.0000   1.0000   1.0000   1.0000   1.0000   1.0000   1.0000   1.0000
     1.0000   1.0000   1.0000   1.0000   1.0000   1.0000   1.0000   1.0000
     1.0000   1.0000   1.0000   1.0000   1.0000   1.0000   1.0000   1.0000
     1.0000   1.0000   1.0000   1.0000   1.0000   1.0000   1.0000   1.0000
     1.0000   1.0000   1.0000   1.0000   1.0000   1.0000   1.0000   1.0000
     1.0000   1.0000   1.0000   1.0000   1.0000   1.0000   1.0000   1.0000
     1.0000   1.0000   1.0000   1.0000   1.0000   1.0000   1.0000   1.0000
     1.0000   1.0000   1.0000   1.0000   1.0000   1.0000   1.0000   1.0000
     1.0000   1.0000   1.0000   1.0000   1.0000   1.0000   1.0000   1.0000
     1.0000   1.0000   1.0000   1.0000   1.0000   1.0000   1.0000   1.0000
     1.0000   1.0000   1.0000   1.0000   1.0000   1.0000   1.0000   1.0000
     1.0000   1.0000   1.0000   1.0000   1.0000   1.0000   1.0000   1.0000
     1.0000   1.0000   1.0000   1.0000   1.0000   1.0000   1.0000   1.0000
     1.0000   1.0000   1.0000   1.0000   1.0000   1.0000   1.0000   1.0000
     1.0000   1.0000   1.0000   1.0000   1.0000   1.0000   1.0000   1.0000
     1.0000   1.0000   1.0000   1.0000   1.0000   1.0000   1.0000   1.0000
     1.0000   1.0000   1.0000   1.0000   1.0000   1.0000   1.0000   1.0000
     1.0000   1.0000   1.0000   1.0000   1.0000   1.0000   1.0000   1.0000
     1.0000   1.0000   0.0000   0.0000   0.0000   0.0000   0.0000   0.0000
     0.0000   0.0000   0.0000   0.0000   0.0000   0.0000   0.0000   0.0000
     0.0000   0.0000   0.0000   0.0000   0.0000   0.0000   0.0000   0.0000
     0.0000   0.0000   0.0000   0.0000   0.0000   0.0000   0.0000   0.0000
     0.0000   0.0000   0.0000   0.0000   0.0000   0.0000   0.0000   0.0000
     0.0000   0.0000   0.0000   0.0000   0.0000   0.0000   0.0000   0.0000
     0.0000   0.0000   0.0000   0.0000   0.0000   0.0000   0.0000   0.0000
     0.0000   0.0000

[...]

          k =-0.5000-0.5000-0.5000 (269968 PWs)   bands (ev):

[...]

 ------ SPIN DOWN ----------

[...]

          k =-0.2500 0.0000 0.2500 (269929 PWs)   bands (ev):

[...]

          k = 0.2500-0.2500-0.5000 (269988 PWs)   bands (ev):

   -77.0599 -43.2282 -43.2282 -43.2206  -7.4545  -7.3763  -7.2058  -7.1987
    -7.1347  -7.0958  -7.0078  -6.8735  -6.8306  -6.8263  -6.7841  -6.7671
    -6.7624  -6.7416  -6.6870  -6.6687  -6.6576  -6.6503  -6.6395  -6.6157
    -6.6027  -6.5804  -6.5660  -6.5605  -6.5344  -6.5312  -6.5123  -6.5029
    -6.3047  -6.2009  -6.1883  -0.8976  -0.8810  -0.8807  -0.8723  -0.8590
    -0.8505  -0.8423  -0.8363  -0.8329  -0.8285  -0.8251  -0.8169  -0.8159
    -0.8150  -0.8102  -0.8079  -0.8050  -0.8016  -0.8007  -0.7975  -0.7924
    -0.7884  -0.7854  -0.7805  -0.7772  -0.7745  -0.7705  -0.7653  -0.7630
    -0.7590  -0.7556  -0.7525  -0.7490  -0.7443  -0.7419  -0.7395  -0.7338
    -0.7317  -0.7272  -0.7233  -0.7193  -0.7128  -0.7054  -0.7006  -0.6972
    -0.6927  -0.6892  -0.6831  -0.6734  -0.6669  -0.6623  -0.6547  -0.6472
    -0.6434  -0.6403  -0.6360  -0.6295  -0.6277  -0.6184  -0.6127  -0.6059
    -0.6036  -0.5945  -0.5864  -0.5820  -0.5810  -0.5754  -0.5659  -0.5642
    -0.5542  -0.5434  -0.5397  -0.5327  -0.5176  -0.5149  -0.5062  -0.4992
    -0.4913  -0.4858  -0.4847  -0.4832  -0.4728  -0.4635  -0.4593  -0.4511
    -0.4458  -0.4446  -0.4295  -0.4251  -0.4236  -0.4182  -0.4149  -0.4129
    -0.4093  -0.4039  -0.3992  -0.3973  -0.3948  -0.3936  -0.3869  -0.3844
    -0.3835  -0.3813  -0.3787  -0.3766  -0.3712  -0.3680  -0.3644  -0.3596
    -0.3557  -0.3521  -0.3441  -0.3411  -0.3363  -0.3287  -0.3255  -0.3210
    -0.3117  -0.3045  -0.3023  -0.2967  -0.2907  -0.2899  -0.2847  -0.2815
    -0.2786  -0.2724  -0.2657  -0.2632  -0.2621  -0.2493  -0.2399  -0.2314
    -0.2131  -0.1935  -0.1744  -0.1707  -0.1564  -0.1434  -0.1336  -0.1087
    -0.0986  -0.0931  -0.0762  -0.0702  -0.0628  -0.0573  -0.0520  -0.0470
    -0.0321  -0.0283  -0.0233  -0.0083   0.0005   0.0117   0.5171   0.6020
     0.7365   0.7606   0.7998   0.8168   0.8315   0.8619   0.9187   0.9242
     0.9391   0.9599   0.9859   1.0029   1.0487   1.0809   1.1725   1.3648
     1.4244   1.5031   1.5357   1.5703   1.6029   1.7010   1.8433   2.1366
     2.4823   2.5295   2.5344   2.5566   2.5692   2.5751   2.6292   2.6969
     2.7283   2.7537   2.7972   2.8151   2.8819   2.9542   2.9823   3.0374
     3.2119   3.2732   3.3305   3.3489   3.4084   3.4196   3.4371   3.4565
     3.4753   3.5005   3.5132   3.5483   3.5908   3.6041   3.6192   3.6281
     3.6318   3.6420   3.6484   3.7092   3.7299   3.7400   3.7752   3.7939
     3.8190   3.8970   3.9324   3.9912   4.0046   4.0717   4.0811   4.1424
     4.1487   4.1742   4.2136   4.2977   4.3369   4.3652   4.3786   4.4078
     4.4363   4.5985   4.7105   4.7603   4.7886   4.8365   4.8624   4.9145
     4.9655   5.0166   5.0320   6.9374   7.7818   7.7976   8.3146   8.4129
     8.7042   8.7880   8.8406   8.9309   9.0408   9.1483   9.2016   9.2773
     9.3097   9.3238   9.4144   9.5301   9.5428   9.5635   9.5807   9.5959
     9.6455   9.7018   9.7205   9.7741   9.7930   9.8336   9.8502   9.8918
     9.9779  10.0029  10.0578  10.0786  10.1531  10.1831  10.2389  10.2836
    10.3038  10.4308  10.4772  10.6334  10.6874  10.7067  10.7937  10.8399
    10.8771  10.9232  11.0308  11.1463  11.1665  11.2122  11.3390  11.3833
    11.4112  11.4506  11.4530  11.4944  11.5227  11.5559  11.5798  11.6011
    11.6074  11.6196

     occupation numbers
     1.0000   1.0000   1.0000   1.0000   1.0000   1.0000   1.0000   1.0000
     1.0000   1.0000   1.0000   1.0000   1.0000   1.0000   1.0000   1.0000
     1.0000   1.0000   1.0000   1.0000   1.0000   1.0000   1.0000   1.0000
     1.0000   1.0000   1.0000   1.0000   1.0000   1.0000   1.0000   1.0000
     1.0000   1.0000   1.0000   1.0000   1.0000   1.0000   1.0000   1.0000
     1.0000   1.0000   1.0000   1.0000   1.0000   1.0000   1.0000   1.0000
     1.0000   1.0000   1.0000   1.0000   1.0000   1.0000   1.0000   1.0000
     1.0000   1.0000   1.0000   1.0000   1.0000   1.0000   1.0000   1.0000
     1.0000   1.0000   1.0000   1.0000   1.0000   1.0000   1.0000   1.0000
     1.0000   1.0000   1.0000   1.0000   1.0000   1.0000   1.0000   1.0000
     1.0000   1.0000   1.0000   1.0000   1.0000   1.0000   1.0000   1.0000
     1.0000   1.0000   1.0000   1.0000   1.0000   1.0000   1.0000   1.0000
     1.0000   1.0000   1.0000   1.0000   1.0000   1.0000   1.0000   1.0000
     1.0000   1.0000   1.0000   1.0000   1.0000   1.0000   1.0000   1.0000
     1.0000   1.0000   1.0000   1.0000   1.0000   1.0000   1.0000   1.0000
     1.0000   1.0000   1.0000   1.0000   1.0000   1.0000   1.0000   1.0000
     1.0000   1.0000   1.0000   1.0000   1.0000   1.0000   1.0000   1.0000
     1.0000   1.0000   1.0000   1.0000   1.0000   1.0000   1.0000   1.0000
     1.0000   1.0000   1.0000   1.0000   1.0000   1.0000   1.0000   1.0000
     1.0000   1.0000   1.0000   1.0000   1.0000   1.0000   1.0000   1.0000
     1.0000   1.0000   1.0000   1.0000   1.0000   1.0000   1.0000   1.0000
     1.0000   1.0000   1.0000   1.0000   1.0000   1.0000   1.0000   1.0000
     1.0000   1.0000   1.0000   1.0000   1.0000   1.0000   1.0000   1.0000
     1.0000   1.0000   1.0000   1.0000   1.0000   1.0000   1.0000   1.0000
     1.0000   1.0000   1.0000   1.0000   1.0000   1.0000   1.0000   1.0000
     1.0000   1.0000   1.0000   1.0000   1.0000   1.0000   1.0000   1.0000
     1.0000   1.0000   1.0000   1.0000   1.0000   1.0000   1.0000   1.0000
     1.0000   1.0000   1.0000   1.0000   1.0000   1.0000   1.0000   1.0000
     1.0000   1.0000   1.0000   1.0000   1.0000   1.0000   1.0000   1.0000
     1.0000   1.0000   1.0000   1.0000   1.0000   1.0000   1.0000   1.0000
     1.0000   1.0000   1.0000   1.0000   1.0000   1.0000   1.0000   1.0000
     1.0000   1.0000   1.0000   1.0000   1.0000   1.0000   1.0000   1.0000
     1.0000   1.0000   1.0000   1.0000   1.0000   1.0000   1.0000   1.0000
     1.0000   1.0000   1.0000   1.0000   1.0000   1.0000   1.0000   1.0000
     1.0000   1.0000   1.0000   1.0000   1.0000   1.0000   1.0000   1.0000
     1.0000   1.0000   1.0000   1.0000   1.0000   1.0000   0.0338   0.0000
     0.0000   0.0000   0.0000   0.0000   0.0000   0.0000   0.0000   0.0000
     0.0000   0.0000   0.0000   0.0000   0.0000   0.0000   0.0000   0.0000
     0.0000   0.0000   0.0000   0.0000   0.0000   0.0000   0.0000   0.0000
     0.0000   0.0000   0.0000   0.0000   0.0000   0.0000   0.0000   0.0000
     0.0000   0.0000   0.0000   0.0000   0.0000   0.0000   0.0000   0.0000
     0.0000   0.0000   0.0000   0.0000   0.0000   0.0000   0.0000   0.0000
     0.0000   0.0000   0.0000   0.0000   0.0000   0.0000   0.0000   0.0000
     0.0000   0.0000

     the Fermi energy is     8.2970 ev

!    total energy              =   -9942.09740524 Ry
     total all-electron energy =   -138653.836383 Ry
     estimated scf accuracy    <          2.8E-09 Ry
     smearing contrib. (-TS)   =      -0.00006787 Ry
     internal energy E=F+TS    =   -9942.09733737 Ry

     The total energy is F=E-TS. E is the sum of the following terms:
     one-electron contribution =   -2892.45055147 Ry
     hartree contribution      =    2014.73512280 Ry
     xc contribution           =   -1651.36455019 Ry
     ewald contribution        =   -2941.96206788 Ry
     one-center paw contrib.   =   -4471.05529063 Ry
      -> PAW hartree energy AE =     123.54421984 Ry
      -> PAW hartree energy PS =    -122.90407876 Ry
      -> PAW xc energy AE      =    -143.22931434 Ry
      -> PAW xc energy PS      =      47.16754446 Ry
      -> total E_H with PAW    =    2015.37526388 Ry
      -> total E_XC with PAW   =   -1747.42632007 Ry

     total magnetization       =     2.93 Bohr mag/cell
     absolute magnetization    =     3.24 Bohr mag/cell

     convergence has been achieved in  24 iterations

     Writing all to output data dir ./out/Fe_vac_qn2_unrlxd.save/

     General routines

     Parallel routines

     PAW routines

   This run was terminated on:   1:34: 7   7Jul2024

   JOB DONE.