     Program PWSCF v.7.2 starts on 10Jul2024 at 11:13: 3

     Reading input from 2.Fe_vac_in_ZnS.scf.qn1.in

     Current dimensions of program PWSCF are:
     Max number of different atomic species (ntypx) = 10
     Max number of k-points (npk) =  40000
     Max angular momentum in pseudopotentials (lmaxx) =  4
     file S.pbe-n-kjpaw_psl.1.0.0.UPF: wavefunction(s)  3S 3P renormalized
     file Zn.pbe-dnl-kjpaw_psl.1.0.0.UPF: wavefunction(s)  4S 3D renormalized
     file Fe.pbe-spn-kjpaw_psl.1.0.0.UPF: wavefunction(s)  3P 3D renormalized

     K-points division:     npool     =       6
     R & G space division:  proc/nbgrp/npool/nimage =     112
     Subspace diagonalization in iterative solution of the eigenvalue problem:
     one sub-group per band group will be used

     Using Slab Decomposition

     bravais-lattice index     =            1
     lattice parameter (alat)  =      20.5686  a.u.
     unit-cell volume          =    8701.8437 (a.u.)^3
     number of atoms/cell      =           63
     number of atomic types    =            3
     number of electrons       =       575.00
     number of Kohn-Sham states=          346
     kinetic-energy cutoff     =     150.0000  Ry
     charge density cutoff     =     600.0000  Ry
     scf convergence threshold =      1.0E-08
     mixing beta               =       0.7000
     number of iterations used =            8  plain     mixing
     Exchange-correlation= SLA  PW   PBX  PBC
                           (   1   4   3   4   0   0   0)

     celldm(1)=  20.568554  celldm(2)=   0.000000  celldm(3)=   0.000000
     celldm(4)=   0.000000  celldm(5)=   0.000000  celldm(6)=   0.000000

     crystal axes: (cart. coord. in units of alat)
               a(1) = (   1.000000   0.000000   0.000000 )
               a(2) = (   0.000000   1.000000   0.000000 )
               a(3) = (   0.000000   0.000000   1.000000 )

     reciprocal axes: (cart. coord. in units 2 pi/alat)
               b(1) = (  1.000000  0.000000  0.000000 )
               b(2) = (  0.000000  1.000000  0.000000 )
               b(3) = (  0.000000  0.000000  1.000000 )

     PseudoPot. # 1 for S  read from file:
     /arf/home/amuhaymin/pseudo/S.pbe-n-kjpaw_psl.1.0.0.UPF
     MD5 check sum: fb45dfebcf3e72a4e1bd4a866ec2e262
     Pseudo is Projector augmented-wave + core cor, Zval =  6.0
     Generated using &quot;atomic&quot; code by A. Dal Corso  v.6.3
     Shape of augmentation charge: PSQ
     Using radial grid of 1151 points,  6 beta functions with:
                l(1) =   0
                l(2) =   0
                l(3) =   1
                l(4) =   1
                l(5) =   2
                l(6) =   2
     Q(r) pseudized with 0 coefficients

     PseudoPot. # 2 for Zn read from file:
     /arf/home/amuhaymin/pseudo/Zn.pbe-dnl-kjpaw_psl.1.0.0.UPF
     MD5 check sum: c608214d9520ac179f507641260889e3
     Pseudo is Projector augmented-wave + core cor, Zval = 12.0
     Generated using &quot;atomic&quot; code by A. Dal Corso  v.6.2.2
     Shape of augmentation charge: PSQ
     Using radial grid of 1201 points,  6 beta functions with:
                l(1) =   0
                l(2) =   0
                l(3) =   1
                l(4) =   1
                l(5) =   2
                l(6) =   2
     Q(r) pseudized with 0 coefficients

     PseudoPot. # 3 for Fe read from file:
     /arf/home/amuhaymin/pseudo/Fe.pbe-spn-kjpaw_psl.1.0.0.UPF
     MD5 check sum: fc81f059e5c5069939230b1155715ae8
     Pseudo is Projector augmented-wave + core cor, Zval = 16.0
     Generated using &quot;atomic&quot; code by A. Dal Corso  v.6.3
     Shape of augmentation charge: PSQ
     Using radial grid of 1191 points,  6 beta functions with:
                l(1) =   0
                l(2) =   0
                l(3) =   1
                l(4) =   1
                l(5) =   2
                l(6) =   2
     Q(r) pseudized with 0 coefficients

     atomic species   valence    mass     pseudopotential
        S              6.00    32.06500     S ( 1.00)
        Zn            12.00    65.38000     Zn( 1.00)
        Fe            16.00    63.54600     Fe( 1.00)

     Starting magnetic structure
     atomic species   magnetization
        S            0.000
        Zn           0.000
        Fe           0.188

      6 Sym. Ops. (no inversion) found

                                    s                        frac. trans.

      isym =  1     identity

 cryst.   s( 1) = (     1          0          0      )
                  (     0          1          0      )
                  (     0          0          1      )

 cart.    s( 1) = (  1.0000000  0.0000000  0.0000000 )
                  (  0.0000000  1.0000000  0.0000000 )
                  (  0.0000000  0.0000000  1.0000000 )

      isym =  2     120 deg rotation - cart. axis [-1,-1,-1]

[...]

      isym =  3     120 deg rotation - cart. axis [1,1,1]

[...]

      isym =  4     inv. 180 deg rotation - cart. axis [1,-1,0]

[...]

      isym =  6     inv. 180 deg rotation - cart. axis [0,1,-1]

 cryst.   s( 6) = (     1          0          0      )
                  (     0          0          1      )
                  (     0          1          0      )

 cart.    s( 6) = (  1.0000000  0.0000000  0.0000000 )
                  (  0.0000000  0.0000000  1.0000000 )
                  (  0.0000000  1.0000000  0.0000000 )

     point group C_3v (3m)
     there are  3 classes
     the character table:

       E     2C3   3s_v
A_1    1.00  1.00  1.00
A_2    1.00  1.00 -1.00
E      2.00 -1.00  0.00

     the symmetry operations in each class and the name of the first element:

     E        1
          identity
     2C3      2    3
          120 deg rotation - cart. axis [-1,-1,-1]
     3s_v     4    5    6
          inv. 180 deg rotation - cart. axis [1,-1,0]

   Cartesian axes

     site n.     atom                  positions (alat units)
         1           Zn  tau(   1) = (  -0.0005373  -0.0005373  -0.0005373  )
         2           Zn  tau(   2) = (   0.0008114   0.2512248   0.2512248  )
         3           Zn  tau(   3) = (   0.2512248   0.0008114   0.2512248  )
         4           Zn  tau(   4) = (   0.2512248   0.2512248   0.0008114  )
         5           S   tau(   5) = (   0.1266756   0.3767350   0.3767350  )
         6           S   tau(   6) = (   0.1252117   0.1252117   0.1252117  )
         7           S   tau(   7) = (   0.3767350   0.3767350   0.1266756  )
         8           S   tau(   8) = (   0.3767350   0.1266756   0.3767350  )
         9           Zn  tau(   9) = (  -0.0042217  -0.0042217   0.5023195  )
        10           Zn  tau(  10) = (  -0.0027001   0.2522442   0.7488272  )
        11           Zn  tau(  11) = (   0.2522442  -0.0027001   0.7488272  )
        12           Zn  tau(  12) = (   0.2563437   0.2563437   0.5035855  )
        13           S   tau(  13) = (   0.1250912   0.3756088   0.8746698  )
        14           S   tau(  14) = (   0.1256587   0.1256587   0.6244601  )
        15           S   tau(  15) = (   0.3860173   0.3860173   0.6241489  )
        16           S   tau(  16) = (   0.3756088   0.1250912   0.8746698  )
        17           Zn  tau(  17) = (  -0.0042217   0.5023195  -0.0042217  )
        18           Zn  tau(  18) = (  -0.0027001   0.7488272   0.2522442  )
        19           Zn  tau(  19) = (   0.2563437   0.5035855   0.2563437  )
        20           Zn  tau(  20) = (   0.2522442   0.7488272  -0.0027001  )
        21           S   tau(  21) = (   0.1250912   0.8746698   0.3756088  )
        22           S   tau(  22) = (   0.1256587   0.6244601   0.1256587  )
        23           S   tau(  23) = (   0.3756088   0.8746698   0.1250912  )
        24           S   tau(  24) = (   0.3860173   0.6241489   0.3860173  )
        25           Zn  tau(  25) = (  -0.0020833   0.5007992   0.5007992  )
        26           Zn  tau(  26) = (  -0.0049130   0.7486655   0.7486655  )
        27           Zn  tau(  27) = (   0.2526938   0.5003761   0.7502331  )
        28           Zn  tau(  28) = (   0.2526938   0.7502331   0.5003761  )
        29           S   tau(  29) = (   0.1238410   0.8736136   0.8736136  )
        30           S   tau(  30) = (   0.1253750   0.6252423   0.6252423  )
        31           S   tau(  31) = (   0.3801007   0.8702912   0.6266041  )
        32           S   tau(  32) = (   0.3801007   0.6266041   0.8702912  )
        33           Zn  tau(  33) = (   0.5023195  -0.0042217  -0.0042217  )
        34           Zn  tau(  34) = (   0.5035855   0.2563437   0.2563437  )
        35           Zn  tau(  35) = (   0.7488272  -0.0027001   0.2522442  )
        36           Zn  tau(  36) = (   0.7488272   0.2522442  -0.0027001  )
        37           S   tau(  37) = (   0.6241489   0.3860173   0.3860173  )
        38           S   tau(  38) = (   0.6244601   0.1256587   0.1256587  )
        39           S   tau(  39) = (   0.8746698   0.3756088   0.1250912  )
        40           S   tau(  40) = (   0.8746698   0.1250912   0.3756088  )
        41           Zn  tau(  41) = (   0.5007992  -0.0020833   0.5007992  )
        42           Zn  tau(  42) = (   0.5003761   0.2526938   0.7502331  )
        43           Zn  tau(  43) = (   0.7486655  -0.0049130   0.7486655  )
        44           Zn  tau(  44) = (   0.7502331   0.2526938   0.5003761  )
        45           S   tau(  45) = (   0.6266041   0.3801007   0.8702912  )
        46           S   tau(  46) = (   0.6252423   0.1253750   0.6252423  )
        47           S   tau(  47) = (   0.8702912   0.3801007   0.6266041  )
        48           S   tau(  48) = (   0.8736136   0.1238410   0.8736136  )
        49           Zn  tau(  49) = (   0.5007992   0.5007992  -0.0020833  )
        50           Zn  tau(  50) = (   0.5003761   0.7502331   0.2526938  )
        51           Zn  tau(  51) = (   0.7502331   0.5003761   0.2526938  )
        52           Zn  tau(  52) = (   0.7486655   0.7486655  -0.0049130  )
        53           S   tau(  53) = (   0.6266041   0.8702912   0.3801007  )
        54           S   tau(  54) = (   0.6252423   0.6252423   0.1253750  )
        55           S   tau(  55) = (   0.8736136   0.8736136   0.1238410  )
        56           S   tau(  56) = (   0.8702912   0.6266041   0.3801007  )
        57           Fe  tau(  57) = (   0.5308731   0.5308731   0.5308731  )
        58           Zn  tau(  58) = (   0.5212808   0.7164996   0.7164996  )
        59           Zn  tau(  59) = (   0.7164996   0.5212808   0.7164996  )
        60           Zn  tau(  60) = (   0.7164996   0.7164996   0.5212808  )
        61           S   tau(  61) = (   0.6210816   0.8658168   0.8658168  )
        62           S   tau(  62) = (   0.8658168   0.8658168   0.6210816  )
        63           S   tau(  63) = (   0.8658168   0.6210816   0.8658168  )

   Crystallographic axes

     site n.     atom                  positions (cryst. coord.)
         1           Zn  tau(   1) = ( -0.0005373 -0.0005373 -0.0005373  )
         2           Zn  tau(   2) = (  0.0008114  0.2512248  0.2512248  )
         3           Zn  tau(   3) = (  0.2512248  0.0008114  0.2512248  )
         4           Zn  tau(   4) = (  0.2512248  0.2512248  0.0008114  )
[...]
     atom  28 (R=0.089)  charge= 10.1488  magn=  0.0025
     atom  29 (R=0.089)  charge=  3.9673  magn= -0.0004
     atom  30 (R=0.089)  charge=  3.9699  magn=  0.0006
     atom  31 (R=0.089)  charge=  3.9594  magn= -0.0031
     atom  32 (R=0.089)  charge=  3.9594  magn= -0.0031
     atom  33 (R=0.089)  charge= 10.1319  magn=  0.0002
     atom  34 (R=0.089)  charge= 10.1313  magn=  0.0025
     atom  35 (R=0.089)  charge= 10.1377  magn= -0.0011
     atom  36 (R=0.089)  charge= 10.1377  magn= -0.0011
     atom  37 (R=0.089)  charge=  3.9585  magn=  0.0213
     atom  38 (R=0.089)  charge=  3.9519  magn=  0.0006
     atom  39 (R=0.089)  charge=  3.9680  magn=  0.0012
     atom  40 (R=0.089)  charge=  3.9680  magn=  0.0012
     atom  41 (R=0.089)  charge= 10.1488  magn=  0.0001
     atom  42 (R=0.089)  charge= 10.1488  magn=  0.0025
     atom  43 (R=0.089)  charge= 10.1463  magn=  0.0001
     atom  44 (R=0.089)  charge= 10.1488  magn=  0.0025
     atom  45 (R=0.089)  charge=  3.9594  magn= -0.0031
     atom  46 (R=0.089)  charge=  3.9699  magn=  0.0006
     atom  47 (R=0.089)  charge=  3.9594  magn= -0.0031
     atom  48 (R=0.089)  charge=  3.9673  magn= -0.0004
     atom  49 (R=0.089)  charge= 10.1488  magn=  0.0001
     atom  50 (R=0.089)  charge= 10.1488  magn=  0.0025
     atom  51 (R=0.089)  charge= 10.1488  magn=  0.0025
     atom  52 (R=0.089)  charge= 10.1463  magn=  0.0001
     atom  53 (R=0.089)  charge=  3.9594  magn= -0.0031
     atom  54 (R=0.089)  charge=  3.9699  magn=  0.0006
     atom  55 (R=0.089)  charge=  3.9673  magn= -0.0004
     atom  56 (R=0.089)  charge=  3.9594  magn= -0.0031
     atom  57 (R=0.093)  charge= 14.1409  magn=  2.8135
     atom  58 (R=0.089)  charge= 10.0789  magn= -0.0153
     atom  59 (R=0.089)  charge= 10.0789  magn= -0.0153
     atom  60 (R=0.089)  charge= 10.0789  magn= -0.0153
     atom  61 (R=0.089)  charge=  3.9504  magn= -0.0018
     atom  62 (R=0.089)  charge=  3.9504  magn= -0.0018
     atom  63 (R=0.089)  charge=  3.9504  magn= -0.0018

     End of self-consistent calculation

 ------ SPIN UP ------------

          k = 0.0000 0.0000 0.0000 (269825 PWs)   bands (ev):

   -81.8205 -48.1067 -48.1067 -47.4504  -7.4877  -6.9776  -6.9776  -6.9637
    -6.9529  -6.9529  -6.9315  -6.7138  -6.7075  -6.7075  -6.6782  -6.6566
    -6.6476  -6.6476  -6.6384  -6.6384  -6.6310  -6.6310  -6.6113  -6.5259
    -6.5259  -6.5175  -6.4212  -6.3686  -6.3686  -6.3612  -6.2914  -6.2642
    -6.2642  -6.2266  -6.2266  -0.8417  -0.8369  -0.8369  -0.8360  -0.8151
    -0.8151  -0.7856  -0.7847  -0.7847  -0.7347  -0.7347  -0.7328  -0.7259
    -0.7259  -0.7178  -0.7178  -0.7149  -0.7140  -0.7086  -0.7086  -0.6932
    -0.6908  -0.6908  -0.6857  -0.6818  -0.6818  -0.6773  -0.6773  -0.6758
    -0.6658  -0.6597  -0.6597  -0.6586  -0.6541  -0.6521  -0.6489  -0.6489
    -0.6452  -0.6452  -0.6426  -0.6408  -0.6408  -0.6321  -0.6203  -0.6188
    -0.6188  -0.6161  -0.6161  -0.6138  -0.6064  -0.6064  -0.6044  -0.5958
    -0.5958  -0.5642  -0.5642  -0.5406  -0.5406  -0.5396  -0.5359  -0.5304
    -0.5304  -0.5258  -0.5258  -0.5175  -0.5157  -0.5157  -0.5122  -0.4927
    -0.4812  -0.4812  -0.4750  -0.4750  -0.4746  -0.4719  -0.4655  -0.4655
    -0.4653  -0.4489  -0.4405  -0.4405  -0.4207  -0.4027  -0.4011  -0.4011
    -0.3979  -0.3979  -0.3976  -0.3934  -0.3934  -0.3886  -0.3886  -0.3885
    -0.3714  -0.3714  -0.3698  -0.3625  -0.3611  -0.3576  -0.3576  -0.3536
    -0.3536  -0.3481  -0.3345  -0.3345  -0.3334  -0.3330  -0.3330  -0.3314
    -0.3286  -0.3286  -0.3213  -0.3213  -0.3161  -0.2895  -0.2895  -0.2828
    -0.2824  -0.2818  -0.2818  -0.2698  -0.2698  -0.2687  -0.2671  -0.2671
    -0.2619  -0.2619  -0.2610  -0.2573  -0.2573  -0.2467  -0.2386  -0.2374
    -0.2374  -0.2329  -0.2246  -0.2246  -0.2138  -0.2090  -0.2090  -0.1857
    -0.1674  -0.1674  -0.1545  -0.1545  -0.1317  -0.1224  -0.1224  -0.1065
    -0.0640   0.0072   0.0072   0.0406   0.0406   0.0665   0.3732   0.3732
     0.3759   0.4307   0.9004   0.9610   0.9610   0.9751   0.9849   0.9956
     0.9956   1.0923   1.0923   1.1385   1.4512   1.4512   1.5430   1.5699
     1.5699   1.5762   1.5762   1.5817   1.8770   1.8770   2.0439   2.3413
     2.5955   2.5955   2.7161   2.7161   2.7917   2.7917   2.7925   2.8306
     2.8448   2.8448   2.8708   2.8708   2.8778   2.8989   2.9613   2.9613
     2.9925   2.9927   2.9927   3.0074   3.0074   3.0177   3.0499   3.0744
     3.0836   3.0836   3.1351   3.1351   3.2266   3.3069   3.3069   3.3760
     3.5084   3.5627   3.5627   3.7603   3.7603   4.0228   4.2126   4.2126
     4.2418   4.2605   4.2608   4.2608   4.3166   4.3166   4.3657   4.3755
     4.3755   4.3906   4.5131   4.5131   4.5616   4.5687   4.5687   4.5774
     4.5804   4.5804   4.5848   4.5848   4.6225   4.6331   4.7141   4.7141
     4.7186   4.8514   4.8514   4.9364   5.3652   5.3652   5.3949   5.5057
     5.5057   7.6762   8.2359   8.2359   8.6084   8.6891   8.6891   8.8006
     8.8210   8.8210   8.9108   9.0301   9.4673   9.4673   9.5126   9.6615
     9.6615   9.8645   9.8706   9.8706   9.9194  10.0346  10.0346  10.0522
    10.0522  10.1115  10.1798  10.1798  10.1834  10.1834  10.1902  10.1945
    10.1945  10.2009  10.2567  10.5759  10.5759  10.5894  10.9835  11.1635
    11.1635  11.2159  11.2159  11.2642  11.2646  11.2646  11.3036  11.4645
    11.6736  11.6736  11.7893  11.8722  11.9076  11.9076  11.9187  11.9546
    11.9547  12.0519

     occupation numbers
     1.0000   1.0000   1.0000   1.0000   1.0000   1.0000   1.0000   1.0000
     1.0000   1.0000   1.0000   1.0000   1.0000   1.0000   1.0000   1.0000
     1.0000   1.0000   1.0000   1.0000   1.0000   1.0000   1.0000   1.0000
     1.0000   1.0000   1.0000   1.0000   1.0000   1.0000   1.0000   1.0000
     1.0000   1.0000   1.0000   1.0000   1.0000   1.0000   1.0000   1.0000
     1.0000   1.0000   1.0000   1.0000   1.0000   1.0000   1.0000   1.0000
     1.0000   1.0000   1.0000   1.0000   1.0000   1.0000   1.0000   1.0000
     1.0000   1.0000   1.0000   1.0000   1.0000   1.0000   1.0000   1.0000
     1.0000   1.0000   1.0000   1.0000   1.0000   1.0000   1.0000   1.0000
     1.0000   1.0000   1.0000   1.0000   1.0000   1.0000   1.0000   1.0000
     1.0000   1.0000   1.0000   1.0000   1.0000   1.0000   1.0000   1.0000
     1.0000   1.0000   1.0000   1.0000   1.0000   1.0000   1.0000   1.0000
     1.0000   1.0000   1.0000   1.0000   1.0000   1.0000   1.0000   1.0000
     1.0000   1.0000   1.0000   1.0000   1.0000   1.0000   1.0000   1.0000
     1.0000   1.0000   1.0000   1.0000   1.0000   1.0000   1.0000   1.0000
     1.0000   1.0000   1.0000   1.0000   1.0000   1.0000   1.0000   1.0000
     1.0000   1.0000   1.0000   1.0000   1.0000   1.0000   1.0000   1.0000
     1.0000   1.0000   1.0000   1.0000   1.0000   1.0000   1.0000   1.0000
     1.0000   1.0000   1.0000   1.0000   1.0000   1.0000   1.0000   1.0000
     1.0000   1.0000   1.0000   1.0000   1.0000   1.0000   1.0000   1.0000
     1.0000   1.0000   1.0000   1.0000   1.0000   1.0000   1.0000   1.0000
     1.0000   1.0000   1.0000   1.0000   1.0000   1.0000   1.0000   1.0000
     1.0000   1.0000   1.0000   1.0000   1.0000   1.0000   1.0000   1.0000
     1.0000   1.0000   1.0000   1.0000   1.0000   1.0000   1.0000   1.0000
     1.0000   1.0000   1.0000   1.0000   1.0000   1.0000   1.0000   1.0000
     1.0000   1.0000   1.0000   1.0000   1.0000   1.0000   1.0000   1.0000
     1.0000   1.0000   1.0000   1.0000   1.0000   1.0000   1.0000   1.0000
     1.0000   1.0000   1.0000   1.0000   1.0000   1.0000   1.0000   1.0000
     1.0000   1.0000   1.0000   1.0000   1.0000   1.0000   1.0000   1.0000
     1.0000   1.0000   1.0000   1.0000   1.0000   1.0000   1.0000   1.0000
     1.0000   1.0000   1.0000   1.0000   1.0000   1.0000   1.0000   1.0000
     1.0000   1.0000   1.0000   1.0000   1.0000   1.0000   1.0000   1.0000
     1.0000   1.0000   1.0000   1.0000   1.0000   1.0000   1.0000   1.0000
     1.0000   1.0000   1.0000   1.0000   1.0000   1.0000   1.0000   1.0000
     1.0000   1.0000   1.0000   1.0000   1.0000   1.0000   1.0000   1.0000
     1.0000   1.0000   1.0000   1.0000   1.0000   1.0000   1.0000   1.0000
     1.0000   0.0000   0.0000   0.0000   0.0000   0.0000   0.0000   0.0000
     0.0000   0.0000   0.0000   0.0000   0.0000   0.0000   0.0000   0.0000
     0.0000   0.0000   0.0000   0.0000   0.0000   0.0000   0.0000   0.0000
     0.0000   0.0000   0.0000   0.0000   0.0000   0.0000   0.0000   0.0000
     0.0000   0.0000   0.0000   0.0000   0.0000   0.0000   0.0000   0.0000
     0.0000   0.0000   0.0000   0.0000   0.0000   0.0000   0.0000   0.0000
     0.0000   0.0000   0.0000   0.0000   0.0000   0.0000   0.0000   0.0000
     0.0000   0.0000

[...]

          k =-0.5000-0.5000-0.5000 (269968 PWs)   bands (ev):

[...]

 ------ SPIN DOWN ----------

[...]

          k =-0.2500 0.0000 0.2500 (269929 PWs)   bands (ev):

[...]

          k = 0.2500-0.2500-0.5000 (269988 PWs)   bands (ev):

   -78.5816 -44.7644 -44.7644 -44.6190  -7.3068  -7.2399  -7.0690  -7.0467
    -7.0057  -6.9724  -6.8717  -6.7702  -6.7033  -6.6872  -6.6620  -6.6463
    -6.6338  -6.5928  -6.5758  -6.5568  -6.5352  -6.5112  -6.4770  -6.4710
    -6.4607  -6.4525  -6.4413  -6.4202  -6.4036  -6.3820  -6.3489  -6.3047
    -6.2989  -6.2807  -6.2779  -0.8139  -0.7967  -0.7951  -0.7794  -0.7736
    -0.7648  -0.7633  -0.7598  -0.7564  -0.7499  -0.7473  -0.7406  -0.7381
    -0.7363  -0.7358  -0.7277  -0.7238  -0.7224  -0.7201  -0.7188  -0.7152
    -0.7140  -0.7066  -0.7062  -0.7003  -0.6978  -0.6943  -0.6904  -0.6886
    -0.6830  -0.6807  -0.6717  -0.6709  -0.6636  -0.6595  -0.6545  -0.6483
    -0.6435  -0.6429  -0.6397  -0.6373  -0.6347  -0.6307  -0.6283  -0.6224
    -0.6214  -0.6192  -0.6105  -0.6077  -0.6056  -0.6029  -0.5982  -0.5930
    -0.5862  -0.5763  -0.5752  -0.5715  -0.5681  -0.5605  -0.5587  -0.5538
    -0.5500  -0.5432  -0.5406  -0.5354  -0.5352  -0.5290  -0.5234  -0.5193
    -0.5106  -0.4969  -0.4885  -0.4869  -0.4722  -0.4666  -0.4586  -0.4553
    -0.4522  -0.4441  -0.4377  -0.4326  -0.4274  -0.4221  -0.4130  -0.4078
    -0.4020  -0.3975  -0.3937  -0.3876  -0.3854  -0.3798  -0.3763  -0.3709
    -0.3694  -0.3580  -0.3574  -0.3538  -0.3518  -0.3506  -0.3464  -0.3403
    -0.3383  -0.3367  -0.3327  -0.3320  -0.3276  -0.3269  -0.3244  -0.3215
    -0.3196  -0.3146  -0.3108  -0.3085  -0.3054  -0.2995  -0.2955  -0.2927
    -0.2840  -0.2771  -0.2716  -0.2684  -0.2661  -0.2619  -0.2574  -0.2536
    -0.2520  -0.2505  -0.2493  -0.2441  -0.2401  -0.2383  -0.2352  -0.2280
    -0.2256  -0.2230  -0.2203  -0.2195  -0.2068  -0.2014  -0.1953  -0.1817
    -0.1752  -0.1527  -0.1494  -0.1440  -0.1323  -0.1255  -0.1001  -0.0902
    -0.0778  -0.0721  -0.0563  -0.0336  -0.0282  -0.0182   0.6274   0.6531
     0.7185   0.8426   0.8806   0.9104   0.9481   0.9533   0.9997   1.0059
     1.0384   1.0632   1.0804   1.1008   1.1258   1.1731   1.2447   1.3626
     1.4125   1.5355   1.6098   1.6616   1.6807   1.7887   1.8886   2.0532
     2.2886   2.5801   2.6287   2.6395   2.6607   2.6759   2.7142   2.7887
     2.8204   2.8445   2.8557   2.8984   2.9200   2.9885   3.0188   3.0443
     3.2618   3.3102   3.3876   3.4152   3.4372   3.4722   3.5092   3.5163
     3.5468   3.5613   3.5773   3.6110   3.6448   3.6776   3.6945   3.7109
     3.7242   3.7558   3.7593   3.7834   3.8069   3.8262   3.8554   3.8830
     3.9062   3.9579   3.9751   4.0179   4.0887   4.1351   4.1469   4.2190
     4.2639   4.2863   4.2989   4.3244   4.3962   4.4281   4.4728   4.4834
     4.5326   4.6101   4.7565   4.7890   4.8621   4.8819   4.9418   4.9739
     5.0121   5.0615   5.0767   5.1527   6.4916   6.5197   7.2277   7.2723
     7.7899   8.2624   8.3271   8.7030   8.9524   8.9797   9.0686   9.0874
     9.2736   9.3499   9.4258   9.4513   9.5362   9.5607   9.6229   9.6467
     9.6665   9.7055   9.7274   9.7632   9.8235   9.8541   9.8892   9.9173
     9.9348  10.0059  10.0125  10.0506  10.0769  10.0948  10.1538  10.2215
    10.3246  10.3906  10.4162  10.4865  10.6083  10.6832  10.7145  10.7670
    10.8419  10.9416  11.0324  11.1142  11.1382  11.2288  11.3346  11.3786
    11.4123  11.4967  11.5085  11.5317  11.5716  11.6000  11.6321  11.6601
    11.6707  11.7102

     occupation numbers
     1.0000   1.0000   1.0000   1.0000   1.0000   1.0000   1.0000   1.0000
     1.0000   1.0000   1.0000   1.0000   1.0000   1.0000   1.0000   1.0000
     1.0000   1.0000   1.0000   1.0000   1.0000   1.0000   1.0000   1.0000
     1.0000   1.0000   1.0000   1.0000   1.0000   1.0000   1.0000   1.0000
     1.0000   1.0000   1.0000   1.0000   1.0000   1.0000   1.0000   1.0000
     1.0000   1.0000   1.0000   1.0000   1.0000   1.0000   1.0000   1.0000
     1.0000   1.0000   1.0000   1.0000   1.0000   1.0000   1.0000   1.0000
     1.0000   1.0000   1.0000   1.0000   1.0000   1.0000   1.0000   1.0000
     1.0000   1.0000   1.0000   1.0000   1.0000   1.0000   1.0000   1.0000
     1.0000   1.0000   1.0000   1.0000   1.0000   1.0000   1.0000   1.0000
     1.0000   1.0000   1.0000   1.0000   1.0000   1.0000   1.0000   1.0000
     1.0000   1.0000   1.0000   1.0000   1.0000   1.0000   1.0000   1.0000
     1.0000   1.0000   1.0000   1.0000   1.0000   1.0000   1.0000   1.0000
     1.0000   1.0000   1.0000   1.0000   1.0000   1.0000   1.0000   1.0000
     1.0000   1.0000   1.0000   1.0000   1.0000   1.0000   1.0000   1.0000
     1.0000   1.0000   1.0000   1.0000   1.0000   1.0000   1.0000   1.0000
     1.0000   1.0000   1.0000   1.0000   1.0000   1.0000   1.0000   1.0000
     1.0000   1.0000   1.0000   1.0000   1.0000   1.0000   1.0000   1.0000
     1.0000   1.0000   1.0000   1.0000   1.0000   1.0000   1.0000   1.0000
     1.0000   1.0000   1.0000   1.0000   1.0000   1.0000   1.0000   1.0000
     1.0000   1.0000   1.0000   1.0000   1.0000   1.0000   1.0000   1.0000
     1.0000   1.0000   1.0000   1.0000   1.0000   1.0000   1.0000   1.0000
     1.0000   1.0000   1.0000   1.0000   1.0000   1.0000   1.0000   1.0000
     1.0000   1.0000   1.0000   1.0000   1.0000   1.0000   1.0000   1.0000
     1.0000   1.0000   1.0000   1.0000   1.0000   1.0000   1.0000   1.0000
     1.0000   1.0000   1.0000   1.0000   1.0000   1.0000   1.0000   1.0000
     1.0000   1.0000   1.0000   1.0000   1.0000   1.0000   1.0000   1.0000
     1.0000   1.0000   1.0000   1.0000   1.0000   1.0000   1.0000   1.0000
     1.0000   1.0000   1.0000   1.0000   1.0000   1.0000   1.0000   1.0000
     1.0000   1.0000   1.0000   1.0000   1.0000   1.0000   1.0000   1.0000
     1.0000   1.0000   1.0000   1.0000   1.0000   1.0000   1.0000   1.0000
     1.0000   1.0000   1.0000   1.0000   1.0000   1.0000   1.0000   1.0000
     1.0000   1.0000   1.0000   1.0000   1.0000   1.0000   1.0000   1.0000
     1.0000   1.0000   1.0000   1.0000   1.0000   1.0000   1.0000   1.0000
     1.0000   1.0000   1.0000   1.0000   1.0000   1.0000   1.0000   1.0000
     1.0000   1.0000   1.0000   1.0000   1.0000   1.0000   0.0000   0.0000
     0.0000   0.0000   0.0000   0.0000   0.0000   0.0000   0.0000   0.0000
     0.0000   0.0000   0.0000   0.0000   0.0000   0.0000   0.0000   0.0000
     0.0000   0.0000   0.0000   0.0000   0.0000   0.0000   0.0000   0.0000
     0.0000   0.0000   0.0000   0.0000   0.0000   0.0000   0.0000   0.0000
     0.0000   0.0000   0.0000   0.0000   0.0000   0.0000   0.0000   0.0000
     0.0000   0.0000   0.0000   0.0000   0.0000   0.0000   0.0000   0.0000
     0.0000   0.0000   0.0000   0.0000   0.0000   0.0000   0.0000   0.0000
     0.0000   0.0000

     the Fermi energy is     7.0610 ev

!    total energy              =   -9942.77503417 Ry
     total all-electron energy =   -138654.514012 Ry
     estimated scf accuracy    <          2.1E-09 Ry
     smearing contrib. (-TS)   =      -0.00000000 Ry
     internal energy E=F+TS    =   -9942.77503417 Ry

     The total energy is F=E-TS. E is the sum of the following terms:
     one-electron contribution =   -2897.59549440 Ry
     hartree contribution      =    2016.29082682 Ry
     xc contribution           =   -1650.16306506 Ry
     ewald contribution        =   -2940.40965496 Ry
     one-center paw contrib.   =   -4470.89764657 Ry
      -> PAW hartree energy AE =     123.13924744 Ry
      -> PAW hartree energy PS =    -122.49696472 Ry
      -> PAW xc energy AE      =    -143.20099393 Ry
      -> PAW xc energy PS      =      47.13956236 Ry
      -> total E_H with PAW    =    2016.93310954 Ry
      -> total E_XC with PAW   =   -1746.22449663 Ry

     total magnetization       =     3.00 Bohr mag/cell
     absolute magnetization    =     3.51 Bohr mag/cell

     convergence has been achieved in  19 iterations

     Writing all to output data dir ./out/Fe_vac_qn1.save/

     General routines

     Parallel routines

     PAW routines

   This run was terminated on:  11:21:16  10Jul2024

   JOB DONE.