     Program PWSCF v.7.2 starts on 29Jun2024 at  2:54: 3

     Reading input from 2.Fe_in_ZnS.scf.qn1.in

     Current dimensions of program PWSCF are:
     Max number of different atomic species (ntypx) = 10
     Max number of k-points (npk) =  40000
     Max angular momentum in pseudopotentials (lmaxx) =  4

     File ./out/Fe_qn1.update deleted, as requested

     File ./out/Fe_qn1.bfgs deleted, as requested
     file S.pbe-n-kjpaw_psl.1.0.0.UPF: wavefunction(s)  3S 3P renormalized
     file Zn.pbe-dnl-kjpaw_psl.1.0.0.UPF: wavefunction(s)  4S 3D renormalized
     file Fe.pbe-spn-kjpaw_psl.1.0.0.UPF: wavefunction(s)  3P 3D renormalized

     K-points division:     npool     =       5
     R & G space division:  proc/nbgrp/npool/nimage =     112
     Subspace diagonalization in iterative solution of the eigenvalue problem:
     one sub-group per band group will be used

     Using Slab Decomposition

     bravais-lattice index     =            1
     lattice parameter (alat)  =      20.5686  a.u.
     unit-cell volume          =    8701.8437 (a.u.)^3
     number of atoms/cell      =           64
     number of atomic types    =            3
     number of electrons       =       581.00
     number of Kohn-Sham states=          349
     kinetic-energy cutoff     =     150.0000  Ry
     charge density cutoff     =     600.0000  Ry
     scf convergence threshold =      1.0E-08
     mixing beta               =       0.7000
     number of iterations used =            8  plain     mixing
     Exchange-correlation= SLA  PW   PBX  PBC
                           (   1   4   3   4   0   0   0)

     celldm(1)=  20.568554  celldm(2)=   0.000000  celldm(3)=   0.000000
     celldm(4)=   0.000000  celldm(5)=   0.000000  celldm(6)=   0.000000

     crystal axes: (cart. coord. in units of alat)
               a(1) = (   1.000000   0.000000   0.000000 )
               a(2) = (   0.000000   1.000000   0.000000 )
               a(3) = (   0.000000   0.000000   1.000000 )

     reciprocal axes: (cart. coord. in units 2 pi/alat)
               b(1) = (  1.000000  0.000000  0.000000 )
               b(2) = (  0.000000  1.000000  0.000000 )
               b(3) = (  0.000000  0.000000  1.000000 )

     PseudoPot. # 1 for S  read from file:
     /arf/home/amuhaymin/pseudo/S.pbe-n-kjpaw_psl.1.0.0.UPF
     MD5 check sum: fb45dfebcf3e72a4e1bd4a866ec2e262
     Pseudo is Projector augmented-wave + core cor, Zval =  6.0
     Generated using &quot;atomic&quot; code by A. Dal Corso  v.6.3
     Shape of augmentation charge: PSQ
     Using radial grid of 1151 points,  6 beta functions with:
                l(1) =   0
                l(2) =   0
                l(3) =   1
                l(4) =   1
                l(5) =   2
                l(6) =   2
     Q(r) pseudized with 0 coefficients

     PseudoPot. # 2 for Zn read from file:
     /arf/home/amuhaymin/pseudo/Zn.pbe-dnl-kjpaw_psl.1.0.0.UPF
     MD5 check sum: c608214d9520ac179f507641260889e3
     Pseudo is Projector augmented-wave + core cor, Zval = 12.0
     Generated using &quot;atomic&quot; code by A. Dal Corso  v.6.2.2
     Shape of augmentation charge: PSQ
     Using radial grid of 1201 points,  6 beta functions with:
                l(1) =   0
                l(2) =   0
                l(3) =   1
                l(4) =   1
                l(5) =   2
                l(6) =   2
     Q(r) pseudized with 0 coefficients

     PseudoPot. # 3 for Fe read from file:
     /arf/home/amuhaymin/pseudo/Fe.pbe-spn-kjpaw_psl.1.0.0.UPF
     MD5 check sum: fc81f059e5c5069939230b1155715ae8
     Pseudo is Projector augmented-wave + core cor, Zval = 16.0
     Generated using &quot;atomic&quot; code by A. Dal Corso  v.6.3
     Shape of augmentation charge: PSQ
     Using radial grid of 1191 points,  6 beta functions with:
                l(1) =   0
                l(2) =   0
                l(3) =   1
                l(4) =   1
                l(5) =   2
                l(6) =   2
     Q(r) pseudized with 0 coefficients

     atomic species   valence    mass     pseudopotential
        S              6.00    32.06500     S ( 1.00)
        Zn            12.00    65.38000     Zn( 1.00)
        Fe            16.00    63.54600     Fe( 1.00)

     Starting magnetic structure
     atomic species   magnetization
        S            0.000
        Zn           0.000
        Fe           0.188

     24 Sym. Ops. (no inversion) found

                                    s                        frac. trans.

      isym =  1     identity

 cryst.   s( 1) = (     1          0          0      )
                  (     0          1          0      )
                  (     0          0          1      )

 cart.    s( 1) = (  1.0000000  0.0000000  0.0000000 )
                  (  0.0000000  1.0000000  0.0000000 )
                  (  0.0000000  0.0000000  1.0000000 )

      isym =  2     180 deg rotation - cart. axis [0,0,1]

[...]

 cryst.   s( 9) = (     0          1          0      )
                  (     0          0          1      )
                  (     1          0          0      )

 cart.    s( 9) = (  0.0000000  0.0000000  1.0000000 )
                  (  1.0000000  0.0000000  0.0000000 )
                  (  0.0000000  1.0000000  0.0000000 )

[...]

 cryst.   s(10) = (     0         -1          0      )
                  (     0          0         -1      )
                  (     1          0          0      )

 cart.    s(10) = (  0.0000000  0.0000000  1.0000000 )
                  ( -1.0000000  0.0000000  0.0000000 )
                  (  0.0000000 -1.0000000  0.0000000 )

[...]

      isym = 12     120 deg rotation - cart. axis [-1,-1,1]

[...]

      isym = 13     inv. 180 deg rotation - cart. axis [1,1,0]

[...]

      isym = 24     inv.  90 deg rotation - cart. axis [1,0,0]

 cryst.   s(24) = (    -1          0          0      )
                  (     0          0         -1      )
                  (     0          1          0      )

 cart.    s(24) = ( -1.0000000  0.0000000  0.0000000 )
                  (  0.0000000  0.0000000  1.0000000 )
                  (  0.0000000 -1.0000000  0.0000000 )

     point group T_d (-43m)
     there are  5 classes
     the character table:

       E     8C3   3C2   6S4   6s_d
A_1    1.00  1.00  1.00  1.00  1.00
A_2    1.00  1.00  1.00 -1.00 -1.00
E      2.00 -1.00  2.00  0.00  0.00
T_1    3.00  0.00 -1.00  1.00 -1.00
T_2    3.00  0.00 -1.00 -1.00  1.00

     the symmetry operations in each class and the name of the first element:

     E        1
          identity
     8C3      5    7    8    6   12    9   10   11
          120 deg rotation - cart. axis [-1,-1,-1]
     3C2      2    3    4
          180 deg rotation - cart. axis [0,0,1]
     6S4     15   16   20   19   23   24
          inv.  90 deg rotation - cart. axis [0,0,-1]
     6s_d    13   14   17   18   21   22
          inv. 180 deg rotation - cart. axis [1,1,0]

   Cartesian axes

     site n.     atom                  positions (alat units)
         1           Zn  tau(   1) = (   0.0000000   0.0000000   0.0000000  )
         2           Zn  tau(   2) = (   0.0001913   0.2504780   0.2504780  )
         3           Zn  tau(   3) = (   0.2504780   0.0001913   0.2504780  )
         4           Zn  tau(   4) = (   0.2504780   0.2504780   0.0001913  )
         5           S   tau(   5) = (   0.1253789   0.3750320   0.3750320  )
         6           S   tau(   6) = (   0.1250333   0.1250333   0.1250333  )
         7           S   tau(   7) = (   0.3750320   0.3750320   0.1253789  )
         8           S   tau(   8) = (   0.3750320   0.1253789   0.3750320  )
         9           Zn  tau(   9) = (   0.0000000   0.0000000   0.5000000  )
        10           Zn  tau(  10) = (  -0.0001913   0.2504780   0.7495220  )
        11           Zn  tau(  11) = (   0.2504780  -0.0001913   0.7495220  )
        12           Zn  tau(  12) = (   0.2521885   0.2521885   0.5025449  )
        13           S   tau(  13) = (   0.1248495   0.3749485   0.8751505  )
        14           S   tau(  14) = (   0.1248495   0.1248495   0.6250515  )
        15           S   tau(  15) = (   0.3773675   0.3773675   0.6226325  )
        16           S   tau(  16) = (   0.3749485   0.1248495   0.8751505  )
        17           Zn  tau(  17) = (   0.0000000   0.5000000   0.0000000  )
        18           Zn  tau(  18) = (  -0.0001913   0.7495220   0.2504780  )
        19           Zn  tau(  19) = (   0.2521885   0.5025449   0.2521885  )
        20           Zn  tau(  20) = (   0.2504780   0.7495220  -0.0001913  )
        21           S   tau(  21) = (   0.1248495   0.8751505   0.3749485  )
        22           S   tau(  22) = (   0.1248495   0.6250515   0.1248495  )
        23           S   tau(  23) = (   0.3749485   0.8751505   0.1248495  )
        24           S   tau(  24) = (   0.3773675   0.6226325   0.3773675  )
        25           Zn  tau(  25) = (   0.0000000   0.5000000   0.5000000  )
        26           Zn  tau(  26) = (   0.0001913   0.7495220   0.7495220  )
        27           Zn  tau(  27) = (   0.2521885   0.4974551   0.7478115  )
        28           Zn  tau(  28) = (   0.2521885   0.7478115   0.4974551  )
        29           S   tau(  29) = (   0.1250333   0.8749667   0.8749667  )
        30           S   tau(  30) = (   0.1253789   0.6249680   0.6249680  )
        31           S   tau(  31) = (   0.3750320   0.8746211   0.6249680  )
        32           S   tau(  32) = (   0.3750320   0.6249680   0.8746211  )
        33           Zn  tau(  33) = (   0.5000000   0.0000000   0.0000000  )
        34           Zn  tau(  34) = (   0.5025449   0.2521885   0.2521885  )
        35           Zn  tau(  35) = (   0.7495220  -0.0001913   0.2504780  )
        36           Zn  tau(  36) = (   0.7495220   0.2504780  -0.0001913  )
        37           S   tau(  37) = (   0.6226325   0.3773675   0.3773675  )
        38           S   tau(  38) = (   0.6250515   0.1248495   0.1248495  )
        39           S   tau(  39) = (   0.8751505   0.3749485   0.1248495  )
        40           S   tau(  40) = (   0.8751505   0.1248495   0.3749485  )
        41           Zn  tau(  41) = (   0.5000000   0.0000000   0.5000000  )
        42           Zn  tau(  42) = (   0.4974551   0.2521885   0.7478115  )
        43           Zn  tau(  43) = (   0.7495220   0.0001913   0.7495220  )
        44           Zn  tau(  44) = (   0.7478115   0.2521885   0.4974551  )
        45           S   tau(  45) = (   0.6249680   0.3750320   0.8746211  )
        46           S   tau(  46) = (   0.6249680   0.1253789   0.6249680  )
        47           S   tau(  47) = (   0.8746211   0.3750320   0.6249680  )
        48           S   tau(  48) = (   0.8749667   0.1250333   0.8749667  )
        49           Zn  tau(  49) = (   0.5000000   0.5000000   0.0000000  )
        50           Zn  tau(  50) = (   0.4974551   0.7478115   0.2521885  )
        51           Zn  tau(  51) = (   0.7478115   0.4974551   0.2521885  )
        52           Zn  tau(  52) = (   0.7495220   0.7495220   0.0001913  )
        53           S   tau(  53) = (   0.6249680   0.8746211   0.3750320  )
        54           S   tau(  54) = (   0.6249680   0.6249680   0.1253789  )
[...]
     atom  31 (R=0.088)  charge=  3.8633  magn= -0.0005
     atom  32 (R=0.088)  charge=  3.8633  magn= -0.0005
     atom  33 (R=0.088)  charge= 10.1135  magn=  0.0008
     atom  34 (R=0.088)  charge= 10.1128  magn=  0.0018
     atom  35 (R=0.088)  charge= 10.1118  magn= -0.0000
     atom  36 (R=0.088)  charge= 10.1118  magn= -0.0000
     atom  37 (R=0.088)  charge=  3.8796  magn=  0.0171
     atom  38 (R=0.088)  charge=  3.8652  magn=  0.0025
     atom  39 (R=0.088)  charge=  3.8652  magn=  0.0025
     atom  40 (R=0.088)  charge=  3.8652  magn=  0.0025
     atom  41 (R=0.088)  charge= 10.1110  magn=  0.0001
     atom  42 (R=0.088)  charge= 10.1128  magn=  0.0018
     atom  43 (R=0.088)  charge= 10.1118  magn= -0.0000
     atom  44 (R=0.088)  charge= 10.1128  magn=  0.0018
     atom  45 (R=0.088)  charge=  3.8633  magn= -0.0005
     atom  46 (R=0.088)  charge=  3.8633  magn= -0.0005
     atom  47 (R=0.088)  charge=  3.8633  magn= -0.0005
     atom  48 (R=0.088)  charge=  3.8654  magn=  0.0003
     atom  49 (R=0.088)  charge= 10.1110  magn=  0.0001
     atom  50 (R=0.088)  charge= 10.1128  magn=  0.0018
     atom  51 (R=0.088)  charge= 10.1128  magn=  0.0018
     atom  52 (R=0.088)  charge= 10.1118  magn= -0.0000
     atom  53 (R=0.088)  charge=  3.8633  magn= -0.0005
     atom  54 (R=0.088)  charge=  3.8633  magn= -0.0005
     atom  55 (R=0.088)  charge=  3.8654  magn=  0.0003
     atom  56 (R=0.088)  charge=  3.8633  magn= -0.0005
     atom  57 (R=0.088)  charge= 14.0523  magn=  2.4828
     atom  58 (R=0.088)  charge= 10.1128  magn=  0.0018
     atom  59 (R=0.088)  charge= 10.1128  magn=  0.0018
     atom  60 (R=0.088)  charge= 10.1128  magn=  0.0018
     atom  61 (R=0.088)  charge=  3.8652  magn=  0.0025
     atom  62 (R=0.088)  charge=  3.8796  magn=  0.0171
     atom  63 (R=0.088)  charge=  3.8652  magn=  0.0025
     atom  64 (R=0.088)  charge=  3.8652  magn=  0.0025

     End of self-consistent calculation

 ------ SPIN UP ------------

          k = 0.0000 0.0000 0.0000 (269825 PWs)   bands (ev):

   -79.9371 -46.0438 -46.0438 -46.0438  -7.4382  -6.9091  -6.9091  -6.8988
    -6.8988  -6.8988  -6.8690  -6.6031  -6.6031  -6.6031  -6.5978  -6.5840
    -6.5840  -6.5820  -6.5820  -6.5820  -6.5800  -6.5800  -6.5800  -6.4855
    -6.4855  -6.4855  -6.4136  -6.2828  -6.2828  -6.2828  -6.2512  -6.2512
    -6.2512  -6.1474  -6.1474  -6.1474  -0.7237  -0.7237  -0.7237  -0.7168
    -0.7168  -0.7165  -0.6771  -0.6771  -0.6600  -0.6585  -0.6585  -0.6585
    -0.6012  -0.6012  -0.6012  -0.5984  -0.5984  -0.5817  -0.5817  -0.5817
    -0.5783  -0.5783  -0.5783  -0.5661  -0.5661  -0.5661  -0.5649  -0.5535
    -0.5535  -0.5535  -0.5460  -0.5460  -0.5460  -0.5436  -0.5436  -0.5420
    -0.5345  -0.5345  -0.5345  -0.5303  -0.5303  -0.5303  -0.5189  -0.5189
    -0.5189  -0.4950  -0.4950  -0.4950  -0.4942  -0.4942  -0.4903  -0.4903
    -0.4903  -0.4830  -0.4633  -0.4633  -0.4633  -0.4409  -0.4409  -0.4259
    -0.4259  -0.4259  -0.3963  -0.3963  -0.3963  -0.3920  -0.3920  -0.3920
    -0.3824  -0.3824  -0.3824  -0.3802  -0.3802  -0.3640  -0.3640  -0.3640
    -0.3510  -0.3510  -0.3510  -0.3504  -0.2980  -0.2980  -0.2980  -0.2784
    -0.2784  -0.2663  -0.2663  -0.2663  -0.2650  -0.2650  -0.2650  -0.2507
    -0.2507  -0.2506  -0.2447  -0.2397  -0.2397  -0.2397  -0.2205  -0.2205
    -0.2205  -0.2183  -0.2183  -0.2075  -0.2018  -0.2018  -0.1955  -0.1955
    -0.1955  -0.1879  -0.1879  -0.1879  -0.1865  -0.1865  -0.1865  -0.1758
    -0.1645  -0.1645  -0.1645  -0.1570  -0.1570  -0.1334  -0.1334  -0.1334
    -0.1325  -0.1325  -0.1320  -0.1078  -0.1078  -0.1078  -0.1069  -0.1069
    -0.1069  -0.0997  -0.0997  -0.0997  -0.0916  -0.0916  -0.0732  -0.0732
    -0.0732  -0.0703  -0.0047  -0.0047  -0.0047   0.0192   0.0192   0.0192
     0.0348   0.1598   0.1598   0.1598   0.1970   0.1970   0.1970   0.4028
     0.4028   0.4028   0.4470   1.0253   1.0320   1.0320   1.0748   1.0748
     1.0748   1.0809   1.0809   1.2803   1.5699   1.5699   1.5699   1.6633
     1.6633   1.6871   1.6871   1.6871   1.6900   1.6900   1.6900   2.0588
     2.8312   2.8312   2.8312   2.8340   2.8340   2.9055   2.9055   2.9055
     2.9076   2.9076   2.9076   2.9348   2.9520   2.9520   2.9520   2.9913
     2.9913   3.0899   3.0900   3.0900   3.1045   3.1045   3.1045   3.1249
     3.1249   3.1249   3.1634   3.1634   3.1634   3.3514   3.4156   3.4156
     3.4156   3.4222   3.4222   3.4222   4.0208   4.0208   4.0208   4.3552
     4.3552   4.3552   4.3665   4.3665   4.3665   4.3930   4.3930   4.3930
     4.5404   4.5404   4.5404   4.5666   4.5666   4.6633   4.6633   4.6633
     4.6659   4.6659   4.6659   4.6854   4.6905   4.6905   4.6905   4.7020
     4.7020   4.7592   4.7592   4.7592   5.4328   5.4328   5.4328   6.6121
     6.6121   6.6975   6.6975   6.6975   7.5851   8.8131   8.8131   8.8131
     8.8906   9.0357   9.0357   9.0357   9.6444   9.6444   9.6544   9.9832
     9.9832   9.9832   9.9897   9.9897  10.0323  10.1233  10.1233  10.1408
    10.1408  10.1408  10.1546  10.3069  10.3069  10.3069  10.3248  10.3248
    10.3277  10.3277  10.3277  10.3425  10.3425  10.3425  10.8435  11.2154
    11.2154  11.2154  11.3191  11.3191  11.3191  11.4659  11.4659  11.4659
    11.4824  11.4824  11.9435  11.9608  11.9609  11.9614  12.1481  12.1481
    12.1486  12.1762  12.1768  12.1853  12.1949

     occupation numbers
     1.0000   1.0000   1.0000   1.0000   1.0000   1.0000   1.0000   1.0000
     1.0000   1.0000   1.0000   1.0000   1.0000   1.0000   1.0000   1.0000
     1.0000   1.0000   1.0000   1.0000   1.0000   1.0000   1.0000   1.0000
     1.0000   1.0000   1.0000   1.0000   1.0000   1.0000   1.0000   1.0000
     1.0000   1.0000   1.0000   1.0000   1.0000   1.0000   1.0000   1.0000
     1.0000   1.0000   1.0000   1.0000   1.0000   1.0000   1.0000   1.0000
     1.0000   1.0000   1.0000   1.0000   1.0000   1.0000   1.0000   1.0000
     1.0000   1.0000   1.0000   1.0000   1.0000   1.0000   1.0000   1.0000
     1.0000   1.0000   1.0000   1.0000   1.0000   1.0000   1.0000   1.0000
     1.0000   1.0000   1.0000   1.0000   1.0000   1.0000   1.0000   1.0000
     1.0000   1.0000   1.0000   1.0000   1.0000   1.0000   1.0000   1.0000
     1.0000   1.0000   1.0000   1.0000   1.0000   1.0000   1.0000   1.0000
     1.0000   1.0000   1.0000   1.0000   1.0000   1.0000   1.0000   1.0000
     1.0000   1.0000   1.0000   1.0000   1.0000   1.0000   1.0000   1.0000
     1.0000   1.0000   1.0000   1.0000   1.0000   1.0000   1.0000   1.0000
     1.0000   1.0000   1.0000   1.0000   1.0000   1.0000   1.0000   1.0000
     1.0000   1.0000   1.0000   1.0000   1.0000   1.0000   1.0000   1.0000
     1.0000   1.0000   1.0000   1.0000   1.0000   1.0000   1.0000   1.0000
     1.0000   1.0000   1.0000   1.0000   1.0000   1.0000   1.0000   1.0000
     1.0000   1.0000   1.0000   1.0000   1.0000   1.0000   1.0000   1.0000
     1.0000   1.0000   1.0000   1.0000   1.0000   1.0000   1.0000   1.0000
     1.0000   1.0000   1.0000   1.0000   1.0000   1.0000   1.0000   1.0000
     1.0000   1.0000   1.0000   1.0000   1.0000   1.0000   1.0000   1.0000
     1.0000   1.0000   1.0000   1.0000   1.0000   1.0000   1.0000   1.0000
     1.0000   1.0000   1.0000   1.0000   1.0000   1.0000   1.0000   1.0000
     1.0000   1.0000   1.0000   1.0000   1.0000   1.0000   1.0000   1.0000
     1.0000   1.0000   1.0000   1.0000   1.0000   1.0000   1.0000   1.0000
     1.0000   1.0000   1.0000   1.0000   1.0000   1.0000   1.0000   1.0000
     1.0000   1.0000   1.0000   1.0000   1.0000   1.0000   1.0000   1.0000
     1.0000   1.0000   1.0000   1.0000   1.0000   1.0000   1.0000   1.0000
     1.0000   1.0000   1.0000   1.0000   1.0000   1.0000   1.0000   1.0000
     1.0000   1.0000   1.0000   1.0000   1.0000   1.0000   1.0000   1.0000
     1.0000   1.0000   1.0000   1.0000   1.0000   1.0000   1.0000   1.0000
     1.0000   1.0000   1.0000   1.0000   1.0000   1.0000   1.0000   1.0000
     1.0000   1.0000   1.0000   1.0000   1.0000   1.0000   1.0000   1.0000
     1.0000   1.0000   1.0000   1.0000   1.0000   1.0000   1.0000   1.0000
     1.0000   1.0000   1.0000   1.0000   1.0000   0.0000   0.0000   0.0000
     0.0000   0.0000   0.0000   0.0000   0.0000   0.0000   0.0000   0.0000
     0.0000   0.0000   0.0000   0.0000   0.0000   0.0000   0.0000   0.0000
     0.0000   0.0000   0.0000   0.0000   0.0000   0.0000   0.0000   0.0000
     0.0000   0.0000   0.0000   0.0000   0.0000   0.0000   0.0000   0.0000
     0.0000   0.0000   0.0000   0.0000   0.0000   0.0000   0.0000   0.0000
     0.0000   0.0000   0.0000   0.0000   0.0000   0.0000   0.0000   0.0000
     0.0000   0.0000   0.0000   0.0000   0.0000

[...]

          k =-0.5000-0.5000-0.5000 (269968 PWs)   bands (ev):

[...]

 ------ SPIN DOWN ----------

[...]

          k = 0.2500-0.5000-0.5000 (269956 PWs)   bands (ev):

[...]

          k =-0.5000-0.5000-0.5000 (269968 PWs)   bands (ev):

   -77.0267 -43.1930 -43.1930 -43.1930  -7.0882  -7.0560  -7.0560  -7.0560
    -7.0130  -7.0130  -7.0130  -6.8893  -6.4709  -6.4709  -6.4709  -6.4497
    -6.4395  -6.4395  -6.4376  -6.4376  -6.4376  -6.4310  -6.4310  -6.4310
    -6.4047  -6.4047  -6.4047  -6.3968  -6.3968  -6.3965  -6.3965  -6.3965
    -6.2640  -6.2004  -6.2004  -6.2004  -0.6644  -0.6644  -0.6644  -0.6411
    -0.6404  -0.6404  -0.6359  -0.6359  -0.6359  -0.6328  -0.6328  -0.6328
    -0.6241  -0.6126  -0.6126  -0.6123  -0.6123  -0.6123  -0.6116  -0.6116
    -0.6116  -0.6078  -0.6078  -0.6078  -0.5907  -0.5898  -0.5898  -0.5898
    -0.5822  -0.5822  -0.5789  -0.5789  -0.5789  -0.5670  -0.5670  -0.5670
    -0.5628  -0.5628  -0.5628  -0.5577  -0.5577  -0.5577  -0.5181  -0.5082
    -0.5082  -0.4905  -0.4865  -0.4865  -0.4865  -0.4710  -0.4710  -0.4710
    -0.4657  -0.4657  -0.4657  -0.4561  -0.4561  -0.4561  -0.4530  -0.4530
    -0.4224  -0.4224  -0.4224  -0.4110  -0.4110  -0.4110  -0.4099  -0.4099
    -0.3797  -0.3664  -0.3664  -0.3664  -0.3465  -0.3465  -0.3465  -0.3460
    -0.3460  -0.3386  -0.3386  -0.3386  -0.3297  -0.3297  -0.3297  -0.3242
    -0.3214  -0.3214  -0.3214  -0.3111  -0.3111  -0.3111  -0.2771  -0.2692
    -0.2692  -0.2409  -0.2409  -0.2190  -0.2190  -0.2190  -0.2116  -0.2116
    -0.2116  -0.1988  -0.1988  -0.1939  -0.1939  -0.1939  -0.1863  -0.1863
    -0.1863  -0.1784  -0.1729  -0.1729  -0.1729  -0.1507  -0.1507  -0.1507
    -0.1412  -0.1412  -0.1412  -0.1248  -0.1248  -0.1248  -0.0990  -0.0990
    -0.0982  -0.0982  -0.0982  -0.0859  -0.0859  -0.0859  -0.0783  -0.0631
    -0.0631  -0.0631  -0.0546  -0.0546  -0.0546  -0.0512  -0.0374  -0.0374
    -0.0267  -0.0267  -0.0267  -0.0123  -0.0123  -0.0123  -0.0103  -0.0103
     0.0010   0.0010   0.0010   0.0060   0.0060   0.0060   0.0521   1.0936
     1.0936   1.0936   1.1220   1.1220   1.1224   1.1444   1.1444   1.1444
     1.1453   1.1453   1.1453   1.1806   1.1806   1.1806   1.2104   1.2104
     1.2199   1.2199   1.2199   1.2314   1.2314   1.2314   1.8284   2.6934
     2.6934   2.6934   2.7694   2.7830   2.7830   2.7830   2.9690   3.1434
     3.1434   3.1790   3.1790   3.1790   3.1969   3.1969   3.1969   3.2020
     3.2147   3.2147   3.2353   3.2353   3.2353   3.2368   3.2368   3.2368
     3.2471   3.2471   3.2471   3.3331   3.3331   3.3331   3.5454   3.9449
     3.9449   3.9449   3.9707   3.9762   3.9762   3.9925   3.9925   3.9925
     3.9978   3.9978   3.9978   4.0028   4.0028   4.0258   4.0258   4.0258
     4.0756   4.0780   4.0780   4.0780   4.0964   4.0964   4.0964   4.9464
     4.9464   4.9464   5.0737   5.0737   5.0854   5.0854   5.0854   5.0954
     5.0954   5.0954   5.0989   5.0989   5.1291   5.1291   5.1291   7.8105
     7.8105   8.9247   8.9389   8.9389   8.9389   8.9562   8.9562   8.9562
     9.0176   9.0176   9.0176   9.1758   9.8327   9.8327   9.8327   9.8332
     9.8332   9.8427   9.8427   9.8427   9.8538   9.8559   9.8559   9.8559
     9.8854   9.8854   9.8854   9.8905   9.8905   9.8905  10.1147  10.1147
    10.1919  10.1919  10.1919  10.4326  11.4314  11.4314  11.4314  11.4493
    11.4493  11.4493  11.4550  11.4580  11.4580  11.4595  11.4595  11.4595
    11.4597  11.4597  11.4597  11.4832  11.4832  11.4832  11.5120  11.5120
    11.7703  11.7703  11.7703  12.2532  12.4259

     occupation numbers
     1.0000   1.0000   1.0000   1.0000   1.0000   1.0000   1.0000   1.0000
     1.0000   1.0000   1.0000   1.0000   1.0000   1.0000   1.0000   1.0000
     1.0000   1.0000   1.0000   1.0000   1.0000   1.0000   1.0000   1.0000
     1.0000   1.0000   1.0000   1.0000   1.0000   1.0000   1.0000   1.0000
     1.0000   1.0000   1.0000   1.0000   1.0000   1.0000   1.0000   1.0000
     1.0000   1.0000   1.0000   1.0000   1.0000   1.0000   1.0000   1.0000
     1.0000   1.0000   1.0000   1.0000   1.0000   1.0000   1.0000   1.0000
     1.0000   1.0000   1.0000   1.0000   1.0000   1.0000   1.0000   1.0000
     1.0000   1.0000   1.0000   1.0000   1.0000   1.0000   1.0000   1.0000
     1.0000   1.0000   1.0000   1.0000   1.0000   1.0000   1.0000   1.0000
     1.0000   1.0000   1.0000   1.0000   1.0000   1.0000   1.0000   1.0000
     1.0000   1.0000   1.0000   1.0000   1.0000   1.0000   1.0000   1.0000
     1.0000   1.0000   1.0000   1.0000   1.0000   1.0000   1.0000   1.0000
     1.0000   1.0000   1.0000   1.0000   1.0000   1.0000   1.0000   1.0000
     1.0000   1.0000   1.0000   1.0000   1.0000   1.0000   1.0000   1.0000
     1.0000   1.0000   1.0000   1.0000   1.0000   1.0000   1.0000   1.0000
     1.0000   1.0000   1.0000   1.0000   1.0000   1.0000   1.0000   1.0000
     1.0000   1.0000   1.0000   1.0000   1.0000   1.0000   1.0000   1.0000
     1.0000   1.0000   1.0000   1.0000   1.0000   1.0000   1.0000   1.0000
     1.0000   1.0000   1.0000   1.0000   1.0000   1.0000   1.0000   1.0000
     1.0000   1.0000   1.0000   1.0000   1.0000   1.0000   1.0000   1.0000
     1.0000   1.0000   1.0000   1.0000   1.0000   1.0000   1.0000   1.0000
     1.0000   1.0000   1.0000   1.0000   1.0000   1.0000   1.0000   1.0000
     1.0000   1.0000   1.0000   1.0000   1.0000   1.0000   1.0000   1.0000
     1.0000   1.0000   1.0000   1.0000   1.0000   1.0000   1.0000   1.0000
     1.0000   1.0000   1.0000   1.0000   1.0000   1.0000   1.0000   1.0000
     1.0000   1.0000   1.0000   1.0000   1.0000   1.0000   1.0000   1.0000
     1.0000   1.0000   1.0000   1.0000   1.0000   1.0000   1.0000   1.0000
     1.0000   1.0000   1.0000   1.0000   1.0000   1.0000   1.0000   1.0000
     1.0000   1.0000   1.0000   1.0000   1.0000   1.0000   1.0000   1.0000
     1.0000   1.0000   1.0000   1.0000   1.0000   1.0000   1.0000   1.0000
     1.0000   1.0000   1.0000   1.0000   1.0000   1.0000   1.0000   1.0000
     1.0000   1.0000   1.0000   1.0000   1.0000   1.0000   1.0000   1.0000
     1.0000   1.0000   1.0000   1.0000   1.0000   1.0000   1.0000   1.0000
     1.0000   1.0000   1.0000   1.0000   1.0000   1.0000   1.0000   1.0000
     1.0000   1.0000   1.0000   1.0000   1.0000   1.0000   1.0000   1.0000
     1.0000   0.0000   0.0000   0.0000   0.0000   0.0000   0.0000   0.0000
     0.0000   0.0000   0.0000   0.0000   0.0000   0.0000   0.0000   0.0000
     0.0000   0.0000   0.0000   0.0000   0.0000   0.0000   0.0000   0.0000
     0.0000   0.0000   0.0000   0.0000   0.0000   0.0000   0.0000   0.0000
     0.0000   0.0000   0.0000   0.0000   0.0000   0.0000   0.0000   0.0000
     0.0000   0.0000   0.0000   0.0000   0.0000   0.0000   0.0000   0.0000
     0.0000   0.0000   0.0000   0.0000   0.0000   0.0000   0.0000   0.0000
     0.0000   0.0000   0.0000   0.0000   0.0000

     the Fermi energy is     7.8720 ev

!    total energy              =  -10009.27964303 Ry
     total all-electron energy =   -139453.119741 Ry
     estimated scf accuracy    <          1.0E-08 Ry
     smearing contrib. (-TS)   =      -0.00003098 Ry
     internal energy E=F+TS    =  -10009.27961204 Ry

     The total energy is F=E-TS. E is the sum of the following terms:
     one-electron contribution =   -2874.80070375 Ry
     hartree contribution      =    2012.06768766 Ry
     xc contribution           =   -1656.05622510 Ry
     ewald contribution        =   -2973.38464853 Ry
     one-center paw contrib.   =   -4517.10572233 Ry
      -> PAW hartree energy AE =     123.36730787 Ry
      -> PAW hartree energy PS =    -122.72575818 Ry
      -> PAW xc energy AE      =    -143.21674591 Ry
      -> PAW xc energy PS      =      47.15518144 Ry
      -> total E_H with PAW    =    2012.70923735 Ry
      -> total E_XC with PAW   =   -1752.11778957 Ry

     total magnetization       =     3.03 Bohr mag/cell
     absolute magnetization    =     3.15 Bohr mag/cell

     convergence has been achieved in  15 iterations

     Writing all to output data dir ./out/Fe_qn1.save/

     General routines

     Parallel routines

     PAW routines

   This run was terminated on:   3: 0:23  29Jun2024

   JOB DONE.