     Program PWSCF v.7.2 starts on  6Jul2024 at 18:30:19

     Reading input from 2.Co_in_ZnS.scf.q0.in

     Current dimensions of program PWSCF are:
     Max number of different atomic species (ntypx) = 10
     Max number of k-points (npk) =  40000
     Max angular momentum in pseudopotentials (lmaxx) =  4
     file S.pbe-n-kjpaw_psl.1.0.0.UPF: wavefunction(s)  3S 3P renormalized
     file Zn.pbe-dnl-kjpaw_psl.1.0.0.UPF: wavefunction(s)  4S 3D renormalized
     file Co.pbe-spn-kjpaw_psl.0.3.1.UPF: wavefunction(s)  3P 3D renormalized

     K-points division:     npool     =      10
     R & G space division:  proc/nbgrp/npool/nimage =     112
     Subspace diagonalization in iterative solution of the eigenvalue problem:
     one sub-group per band group will be used

     Using Slab Decomposition

     bravais-lattice index     =            1
     lattice parameter (alat)  =      20.5686  a.u.
     unit-cell volume          =    8701.8437 (a.u.)^3
     number of atoms/cell      =           64
     number of atomic types    =            3
     number of electrons       =       581.00
     number of Kohn-Sham states=          349
     kinetic-energy cutoff     =     150.0000  Ry
     charge density cutoff     =     600.0000  Ry
     scf convergence threshold =      1.0E-08
     mixing beta               =       0.7000
     number of iterations used =            8  plain     mixing
     Exchange-correlation= SLA  PW   PBX  PBC
                           (   1   4   3   4   0   0   0)

     celldm(1)=  20.568554  celldm(2)=   0.000000  celldm(3)=   0.000000
     celldm(4)=   0.000000  celldm(5)=   0.000000  celldm(6)=   0.000000

     crystal axes: (cart. coord. in units of alat)
               a(1) = (   1.000000   0.000000   0.000000 )
               a(2) = (   0.000000   1.000000   0.000000 )
               a(3) = (   0.000000   0.000000   1.000000 )

     reciprocal axes: (cart. coord. in units 2 pi/alat)
               b(1) = (  1.000000  0.000000  0.000000 )
               b(2) = (  0.000000  1.000000  0.000000 )
               b(3) = (  0.000000  0.000000  1.000000 )

     PseudoPot. # 1 for S  read from file:
     /arf/home/amuhaymin/pseudo/S.pbe-n-kjpaw_psl.1.0.0.UPF
     MD5 check sum: fb45dfebcf3e72a4e1bd4a866ec2e262
     Pseudo is Projector augmented-wave + core cor, Zval =  6.0
     Generated using &quot;atomic&quot; code by A. Dal Corso  v.6.3
     Shape of augmentation charge: PSQ
     Using radial grid of 1151 points,  6 beta functions with:
                l(1) =   0
                l(2) =   0
                l(3) =   1
                l(4) =   1
                l(5) =   2
                l(6) =   2
     Q(r) pseudized with 0 coefficients

     PseudoPot. # 2 for Zn read from file:
     /arf/home/amuhaymin/pseudo/Zn.pbe-dnl-kjpaw_psl.1.0.0.UPF
     MD5 check sum: c608214d9520ac179f507641260889e3
     Pseudo is Projector augmented-wave + core cor, Zval = 12.0
     Generated using &quot;atomic&quot; code by A. Dal Corso  v.6.2.2
     Shape of augmentation charge: PSQ
     Using radial grid of 1201 points,  6 beta functions with:
                l(1) =   0
                l(2) =   0
                l(3) =   1
                l(4) =   1
                l(5) =   2
                l(6) =   2
     Q(r) pseudized with 0 coefficients

     PseudoPot. # 3 for Co read from file:
     /arf/home/amuhaymin/pseudo/Co.pbe-spn-kjpaw_psl.0.3.1.UPF
     MD5 check sum: b0a1ad65bf214e88c1f3d33b20c7d919
     Pseudo is Projector augmented-wave + core cor, Zval = 17.0
     Generated using &quot;atomic&quot; code by A. Dal Corso  v.6.2.2
     Shape of augmentation charge: PSQ
     Using radial grid of 1193 points,  6 beta functions with:
                l(1) =   0
                l(2) =   0
                l(3) =   1
                l(4) =   1
                l(5) =   2
                l(6) =   2
     Q(r) pseudized with 0 coefficients

     atomic species   valence    mass     pseudopotential
        S              6.00    32.06500     S ( 1.00)
        Zn            12.00    65.38000     Zn( 1.00)
        Co            17.00    63.54600     Co( 1.00)

     Starting magnetic structure
     atomic species   magnetization
        S            0.000
        Zn           0.000
        Co           0.176

     24 Sym. Ops. (no inversion) found

                                    s                        frac. trans.

      isym =  1     identity

 cryst.   s( 1) = (     1          0          0      )
                  (     0          1          0      )
                  (     0          0          1      )

 cart.    s( 1) = (  1.0000000  0.0000000  0.0000000 )
                  (  0.0000000  1.0000000  0.0000000 )
                  (  0.0000000  0.0000000  1.0000000 )

      isym =  2     180 deg rotation - cart. axis [0,0,1]

[...]

 cryst.   s( 9) = (     0          1          0      )
                  (     0          0          1      )
                  (     1          0          0      )

 cart.    s( 9) = (  0.0000000  0.0000000  1.0000000 )
                  (  1.0000000  0.0000000  0.0000000 )
                  (  0.0000000  1.0000000  0.0000000 )

[...]

 cryst.   s(10) = (     0         -1          0      )
                  (     0          0         -1      )
                  (     1          0          0      )

 cart.    s(10) = (  0.0000000  0.0000000  1.0000000 )
                  ( -1.0000000  0.0000000  0.0000000 )
                  (  0.0000000 -1.0000000  0.0000000 )

[...]

      isym = 12     120 deg rotation - cart. axis [-1,-1,1]

[...]

      isym = 13     inv. 180 deg rotation - cart. axis [1,1,0]

[...]

      isym = 24     inv.  90 deg rotation - cart. axis [1,0,0]

 cryst.   s(24) = (    -1          0          0      )
                  (     0          0         -1      )
                  (     0          1          0      )

 cart.    s(24) = ( -1.0000000  0.0000000  0.0000000 )
                  (  0.0000000  0.0000000  1.0000000 )
                  (  0.0000000 -1.0000000  0.0000000 )

     point group T_d (-43m)
     there are  5 classes
     the character table:

       E     8C3   3C2   6S4   6s_d
A_1    1.00  1.00  1.00  1.00  1.00
A_2    1.00  1.00  1.00 -1.00 -1.00
E      2.00 -1.00  2.00  0.00  0.00
T_1    3.00  0.00 -1.00  1.00 -1.00
T_2    3.00  0.00 -1.00 -1.00  1.00

     the symmetry operations in each class and the name of the first element:

     E        1
          identity
     8C3      5    7    8    6   12    9   10   11
          120 deg rotation - cart. axis [-1,-1,-1]
     3C2      2    3    4
          180 deg rotation - cart. axis [0,0,1]
     6S4     15   16   20   19   23   24
          inv.  90 deg rotation - cart. axis [0,0,-1]
     6s_d    13   14   17   18   21   22
          inv. 180 deg rotation - cart. axis [1,1,0]

   Cartesian axes

     site n.     atom                  positions (alat units)
         1           Zn  tau(   1) = (   0.0000000   0.0000000   0.0000000  )
         2           Zn  tau(   2) = (   0.0000726   0.2501036   0.2501036  )
         3           Zn  tau(   3) = (   0.2501036   0.0000726   0.2501036  )
         4           Zn  tau(   4) = (   0.2501036   0.2501036   0.0000726  )
         5           S   tau(   5) = (   0.1251638   0.3750917   0.3750917  )
         6           S   tau(   6) = (   0.1250111   0.1250111   0.1250111  )
         7           S   tau(   7) = (   0.3750917   0.3750917   0.1251638  )
         8           S   tau(   8) = (   0.3750917   0.1251638   0.3750917  )
         9           Zn  tau(   9) = (   0.0000000   0.0000000   0.5000000  )
        10           Zn  tau(  10) = (  -0.0000726   0.2501036   0.7498964  )
        11           Zn  tau(  11) = (   0.2501036  -0.0000726   0.7498964  )
        12           Zn  tau(  12) = (   0.2510106   0.2510106   0.5002689  )
        13           S   tau(  13) = (   0.1254516   0.3751545   0.8745484  )
        14           S   tau(  14) = (   0.1254516   0.1254516   0.6248455  )
        15           S   tau(  15) = (   0.3782651   0.3782651   0.6217349  )
        16           S   tau(  16) = (   0.3751545   0.1254516   0.8745484  )
        17           Zn  tau(  17) = (   0.0000000   0.5000000   0.0000000  )
        18           Zn  tau(  18) = (  -0.0000726   0.7498964   0.2501036  )
        19           Zn  tau(  19) = (   0.2510106   0.5002689   0.2510106  )
        20           Zn  tau(  20) = (   0.2501036   0.7498964  -0.0000726  )
        21           S   tau(  21) = (   0.1254516   0.8745484   0.3751545  )
        22           S   tau(  22) = (   0.1254516   0.6248455   0.1254516  )
        23           S   tau(  23) = (   0.3751545   0.8745484   0.1254516  )
        24           S   tau(  24) = (   0.3782651   0.6217349   0.3782651  )
        25           Zn  tau(  25) = (   0.0000000   0.5000000   0.5000000  )
        26           Zn  tau(  26) = (   0.0000726   0.7498964   0.7498964  )
        27           Zn  tau(  27) = (   0.2510106   0.4997311   0.7489894  )
        28           Zn  tau(  28) = (   0.2510106   0.7489894   0.4997311  )
        29           S   tau(  29) = (   0.1250111   0.8749889   0.8749889  )
        30           S   tau(  30) = (   0.1251638   0.6249083   0.6249083  )
        31           S   tau(  31) = (   0.3750917   0.8748362   0.6249083  )
        32           S   tau(  32) = (   0.3750917   0.6249083   0.8748362  )
        33           Zn  tau(  33) = (   0.5000000   0.0000000   0.0000000  )
        34           Zn  tau(  34) = (   0.5002689   0.2510106   0.2510106  )
        35           Zn  tau(  35) = (   0.7498964  -0.0000726   0.2501036  )
        36           Zn  tau(  36) = (   0.7498964   0.2501036  -0.0000726  )
        37           S   tau(  37) = (   0.6217349   0.3782651   0.3782651  )
        38           S   tau(  38) = (   0.6248455   0.1254516   0.1254516  )
        39           S   tau(  39) = (   0.8745484   0.3751545   0.1254516  )
        40           S   tau(  40) = (   0.8745484   0.1254516   0.3751545  )
        41           Zn  tau(  41) = (   0.5000000   0.0000000   0.5000000  )
        42           Zn  tau(  42) = (   0.4997311   0.2510106   0.7489894  )
        43           Zn  tau(  43) = (   0.7498964   0.0000726   0.7498964  )
        44           Zn  tau(  44) = (   0.7489894   0.2510106   0.4997311  )
        45           S   tau(  45) = (   0.6249083   0.3750917   0.8748362  )
        46           S   tau(  46) = (   0.6249083   0.1251638   0.6249083  )
        47           S   tau(  47) = (   0.8748362   0.3750917   0.6249083  )
        48           S   tau(  48) = (   0.8749889   0.1250111   0.8749889  )
        49           Zn  tau(  49) = (   0.5000000   0.5000000   0.0000000  )
        50           Zn  tau(  50) = (   0.4997311   0.7489894   0.2510106  )
        51           Zn  tau(  51) = (   0.7489894   0.4997311   0.2510106  )
        52           Zn  tau(  52) = (   0.7498964   0.7498964   0.0000726  )
        53           S   tau(  53) = (   0.6249083   0.8748362   0.3750917  )
        54           S   tau(  54) = (   0.6249083   0.6249083   0.1251638  )
        55           S   tau(  55) = (   0.8749889   0.8749889   0.1250111  )
[...]
     atom  30 (R=0.087)  charge=  3.8112  magn=  0.0004
     atom  31 (R=0.087)  charge=  3.8112  magn=  0.0004
     atom  32 (R=0.087)  charge=  3.8112  magn=  0.0004
     atom  33 (R=0.089)  charge= 10.1560  magn=  0.0014
     atom  34 (R=0.089)  charge= 10.1576  magn=  0.0038
     atom  35 (R=0.089)  charge= 10.1586  magn=  0.0002
     atom  36 (R=0.089)  charge= 10.1586  magn=  0.0002
     atom  37 (R=0.087)  charge=  3.8111  magn=  0.0638
     atom  38 (R=0.087)  charge=  3.8090  magn=  0.0048
     atom  39 (R=0.087)  charge=  3.8090  magn=  0.0048
     atom  40 (R=0.087)  charge=  3.8090  magn=  0.0048
     atom  41 (R=0.089)  charge= 10.1598  magn=  0.0001
     atom  42 (R=0.089)  charge= 10.1576  magn=  0.0038
     atom  43 (R=0.089)  charge= 10.1586  magn=  0.0002
     atom  44 (R=0.089)  charge= 10.1576  magn=  0.0038
     atom  45 (R=0.087)  charge=  3.8112  magn=  0.0004
     atom  46 (R=0.087)  charge=  3.8112  magn=  0.0004
     atom  47 (R=0.087)  charge=  3.8112  magn=  0.0004
     atom  48 (R=0.087)  charge=  3.8109  magn=  0.0008
     atom  49 (R=0.089)  charge= 10.1598  magn=  0.0001
     atom  50 (R=0.089)  charge= 10.1576  magn=  0.0038
     atom  51 (R=0.089)  charge= 10.1576  magn=  0.0038
     atom  52 (R=0.089)  charge= 10.1586  magn=  0.0002
     atom  53 (R=0.087)  charge=  3.8112  magn=  0.0004
     atom  54 (R=0.087)  charge=  3.8112  magn=  0.0004
     atom  55 (R=0.087)  charge=  3.8109  magn=  0.0008
     atom  56 (R=0.087)  charge=  3.8112  magn=  0.0004
     atom  57 (R=0.087)  charge= 15.0246  magn=  2.2014
     atom  58 (R=0.089)  charge= 10.1576  magn=  0.0038
     atom  59 (R=0.089)  charge= 10.1576  magn=  0.0038
     atom  60 (R=0.089)  charge= 10.1576  magn=  0.0038
     atom  61 (R=0.087)  charge=  3.8090  magn=  0.0048
     atom  62 (R=0.087)  charge=  3.8111  magn=  0.0638
     atom  63 (R=0.087)  charge=  3.8090  magn=  0.0048
     atom  64 (R=0.087)  charge=  3.8090  magn=  0.0048

     End of self-consistent calculation

 ------ SPIN UP ------------

          k = 0.0000 0.0000 0.0000 (269825 PWs)   bands (ev):

   -90.1165 -53.3875 -53.3875 -53.3875  -7.4343  -6.9112  -6.8933  -6.8933
    -6.8933  -6.8878  -6.8878  -6.5878  -6.5845  -6.5845  -6.5845  -6.5666
    -6.5666  -6.5666  -6.5663  -6.5663  -6.5663  -6.5643  -6.5643  -6.5478
    -6.5478  -6.5478  -6.5446  -6.2544  -6.2544  -6.2544  -6.2454  -6.2454
    -6.2454  -6.2369  -6.2369  -6.2369  -0.6880  -0.6867  -0.6867  -0.6829
    -0.6829  -0.6829  -0.6552  -0.6528  -0.6528  -0.6398  -0.6398  -0.6398
    -0.5370  -0.5370  -0.5370  -0.5365  -0.5365  -0.5363  -0.5363  -0.5363
    -0.5286  -0.5281  -0.5281  -0.5281  -0.5263  -0.5263  -0.5263  -0.5241
    -0.5241  -0.5211  -0.5211  -0.5211  -0.5178  -0.5153  -0.5153  -0.5153
    -0.5077  -0.5077  -0.5077  -0.5067  -0.5067  -0.5067  -0.5056  -0.5056
    -0.5056  -0.5033  -0.5033  -0.5016  -0.5016  -0.5016  -0.4976  -0.4976
    -0.4976  -0.4949  -0.4949  -0.4949  -0.4949  -0.4723  -0.4723  -0.4218
    -0.4218  -0.4218  -0.3768  -0.3768  -0.3768  -0.3738  -0.3738  -0.3738
    -0.3691  -0.3691  -0.3691  -0.3683  -0.3683  -0.3683  -0.3599  -0.3599
    -0.3571  -0.3347  -0.3347  -0.3347  -0.3171  -0.3171  -0.3171  -0.2352
    -0.2352  -0.2352  -0.2242  -0.2242  -0.2242  -0.2212  -0.2165  -0.2165
    -0.2065  -0.2055  -0.2055  -0.2052  -0.2052  -0.2052  -0.2035  -0.1991
    -0.1991  -0.1866  -0.1866  -0.1866  -0.1824  -0.1824  -0.1824  -0.1820
    -0.1820  -0.1820  -0.1820  -0.1731  -0.1731  -0.1568  -0.1568  -0.1508
    -0.1508  -0.1508  -0.1390  -0.1390  -0.1390  -0.1352  -0.1352  -0.1332
    -0.1332  -0.1332  -0.1311  -0.1253  -0.1253  -0.1253  -0.1213  -0.1213
    -0.1088  -0.1088  -0.1088  -0.1086  -0.1086  -0.1086  -0.1060  -0.0980
    -0.0980  -0.0962  -0.0186  -0.0186  -0.0186   0.0284   0.0363   0.0363
     0.0363   0.1647   0.1647   0.1647   0.2102   0.2102   0.2102   0.4111
     0.4111   0.4111   0.4498   1.0465   1.0465   1.0857   1.0857   1.0857
     1.0919   1.0919   1.0966   1.1902   1.4623   1.4623   1.4623   1.6909
     1.6909   1.6909   1.6936   1.6936   1.6988   1.6988   1.6988   1.8561
     2.4094   2.4094   2.4094   2.6848   2.6848   2.9160   2.9160   2.9160
     2.9287   2.9287   2.9287   2.9507   2.9600   2.9600   2.9600   3.0129
     3.0129   3.0943   3.0992   3.0992   3.0992   3.0996   3.0996   3.1300
     3.1300   3.1300   3.1451   3.1451   3.1451   3.1848   3.3441   3.3441
     3.3441   3.4178   3.4178   3.4178   3.5828   3.5828   3.5828   4.1305
     4.1305   4.3689   4.3689   4.3689   4.3713   4.3713   4.3713   4.3826
     4.3826   4.3826   4.4892   4.4892   4.4892   4.6906   4.6906   4.6906
     4.7028   4.7028   4.7028   4.7046   4.7179   4.7179   4.7179   4.7194
     4.7194   4.7262   4.7262   4.7262   5.0626   5.0626   5.1301   5.1301
     5.1301   5.7038   5.7038   5.7038   7.5946   8.8245   8.8245   8.8245
     8.9003   9.0378   9.0378   9.0378   9.6439   9.6439   9.6735   9.9872
     9.9872   9.9953   9.9953   9.9953  10.0277  10.1372  10.1372  10.1500
    10.1500  10.1500  10.1689  10.3226  10.3226  10.3226  10.3239  10.3239
    10.3239  10.3275  10.3275  10.3375  10.3375  10.3375  10.7907  11.2391
    11.2391  11.2391  11.3102  11.3102  11.3102  11.4713  11.4713  11.4713
    11.4768  11.4768  11.8996  11.9632  11.9632  11.9633  12.1800  12.1800
    12.1800  12.1989  12.1990  12.1990  12.2164

     occupation numbers
     1.0000   1.0000   1.0000   1.0000   1.0000   1.0000   1.0000   1.0000
     1.0000   1.0000   1.0000   1.0000   1.0000   1.0000   1.0000   1.0000
     1.0000   1.0000   1.0000   1.0000   1.0000   1.0000   1.0000   1.0000
     1.0000   1.0000   1.0000   1.0000   1.0000   1.0000   1.0000   1.0000
     1.0000   1.0000   1.0000   1.0000   1.0000   1.0000   1.0000   1.0000
     1.0000   1.0000   1.0000   1.0000   1.0000   1.0000   1.0000   1.0000
     1.0000   1.0000   1.0000   1.0000   1.0000   1.0000   1.0000   1.0000
     1.0000   1.0000   1.0000   1.0000   1.0000   1.0000   1.0000   1.0000
     1.0000   1.0000   1.0000   1.0000   1.0000   1.0000   1.0000   1.0000
     1.0000   1.0000   1.0000   1.0000   1.0000   1.0000   1.0000   1.0000
     1.0000   1.0000   1.0000   1.0000   1.0000   1.0000   1.0000   1.0000
     1.0000   1.0000   1.0000   1.0000   1.0000   1.0000   1.0000   1.0000
     1.0000   1.0000   1.0000   1.0000   1.0000   1.0000   1.0000   1.0000
     1.0000   1.0000   1.0000   1.0000   1.0000   1.0000   1.0000   1.0000
     1.0000   1.0000   1.0000   1.0000   1.0000   1.0000   1.0000   1.0000
     1.0000   1.0000   1.0000   1.0000   1.0000   1.0000   1.0000   1.0000
     1.0000   1.0000   1.0000   1.0000   1.0000   1.0000   1.0000   1.0000
     1.0000   1.0000   1.0000   1.0000   1.0000   1.0000   1.0000   1.0000
     1.0000   1.0000   1.0000   1.0000   1.0000   1.0000   1.0000   1.0000
     1.0000   1.0000   1.0000   1.0000   1.0000   1.0000   1.0000   1.0000
     1.0000   1.0000   1.0000   1.0000   1.0000   1.0000   1.0000   1.0000
     1.0000   1.0000   1.0000   1.0000   1.0000   1.0000   1.0000   1.0000
     1.0000   1.0000   1.0000   1.0000   1.0000   1.0000   1.0000   1.0000
     1.0000   1.0000   1.0000   1.0000   1.0000   1.0000   1.0000   1.0000
     1.0000   1.0000   1.0000   1.0000   1.0000   1.0000   1.0000   1.0000
     1.0000   1.0000   1.0000   1.0000   1.0000   1.0000   1.0000   1.0000
     1.0000   1.0000   1.0000   1.0000   1.0000   1.0000   1.0000   1.0000
     1.0000   1.0000   1.0000   1.0000   1.0000   1.0000   1.0000   1.0000
     1.0000   1.0000   1.0000   1.0000   1.0000   1.0000   1.0000   1.0000
     1.0000   1.0000   1.0000   1.0000   1.0000   1.0000   1.0000   1.0000
     1.0000   1.0000   1.0000   1.0000   1.0000   1.0000   1.0000   1.0000
     1.0000   1.0000   1.0000   1.0000   1.0000   1.0000   1.0000   1.0000
     1.0000   1.0000   1.0000   1.0000   1.0000   1.0000   1.0000   1.0000
     1.0000   1.0000   1.0000   1.0000   1.0000   1.0000   1.0000   1.0000
     1.0000   1.0000   1.0000   1.0000   1.0000   1.0000   1.0000   1.0000
     1.0000   1.0000   1.0000   1.0000   1.0000   1.0000   1.0000   1.0000
     1.0000   1.0000   1.0000   1.0000   0.0000   0.0000   0.0000   0.0000
     0.0000   0.0000   0.0000   0.0000   0.0000   0.0000   0.0000   0.0000
     0.0000   0.0000   0.0000   0.0000   0.0000   0.0000   0.0000   0.0000
     0.0000   0.0000   0.0000   0.0000   0.0000   0.0000   0.0000   0.0000
     0.0000   0.0000   0.0000   0.0000   0.0000   0.0000   0.0000   0.0000
     0.0000   0.0000   0.0000   0.0000   0.0000   0.0000   0.0000   0.0000
     0.0000   0.0000   0.0000   0.0000   0.0000   0.0000   0.0000   0.0000
     0.0000   0.0000   0.0000   0.0000   0.0000

[...]

          k =-0.5000-0.5000-0.5000 (269968 PWs)   bands (ev):

[...]

 ------ SPIN DOWN ----------

[...]

          k = 0.2500-0.5000-0.5000 (269956 PWs)   bands (ev):

[...]

          k =-0.5000-0.5000-0.5000 (269968 PWs)   bands (ev):

   -87.4403 -50.7772 -50.7772 -50.7772  -7.0281  -7.0215  -7.0215  -7.0215
    -7.0129  -7.0129  -7.0129  -6.9839  -6.4097  -6.4097  -6.4097  -6.4067
    -6.4024  -6.4024  -6.4024  -6.4021  -6.4021  -6.4021  -6.4010  -6.4010
    -6.3980  -6.3980  -6.3974  -6.3974  -6.3974  -6.3970  -6.3970  -6.3970
    -6.3753  -6.3449  -6.3449  -6.3449  -0.5985  -0.5946  -0.5946  -0.5946
    -0.5940  -0.5940  -0.5940  -0.5873  -0.5831  -0.5831  -0.5831  -0.5825
    -0.5825  -0.5825  -0.5823  -0.5823  -0.5798  -0.5798  -0.5782  -0.5782
    -0.5782  -0.5691  -0.5691  -0.5691  -0.5669  -0.5636  -0.5636  -0.5636
    -0.5635  -0.5635  -0.5632  -0.5632  -0.5632  -0.5609  -0.5609  -0.5609
    -0.5600  -0.5600  -0.5600  -0.5595  -0.5595  -0.5595  -0.5292  -0.5084
    -0.5084  -0.5002  -0.5002  -0.5002  -0.4322  -0.4322  -0.4322  -0.4314
    -0.4301  -0.4301  -0.4301  -0.4289  -0.4289  -0.4289  -0.4285  -0.4285
    -0.4258  -0.4258  -0.4258  -0.4246  -0.4205  -0.4205  -0.4205  -0.4089
    -0.4089  -0.3568  -0.3568  -0.3568  -0.3178  -0.3178  -0.3178  -0.3175
    -0.3168  -0.3168  -0.3168  -0.3165  -0.3165  -0.3157  -0.3157  -0.3157
    -0.3144  -0.3144  -0.3144  -0.3132  -0.3132  -0.3132  -0.2928  -0.2881
    -0.2881  -0.1756  -0.1756  -0.1756  -0.1687  -0.1687  -0.1687  -0.1684
    -0.1684  -0.1665  -0.1665  -0.1665  -0.1628  -0.1628  -0.1628  -0.1522
    -0.1522  -0.1522  -0.1489  -0.1489  -0.1297  -0.1297  -0.1297  -0.1282
    -0.1282  -0.1276  -0.1259  -0.1259  -0.1259  -0.1247  -0.1247  -0.1247
    -0.1234  -0.1234  -0.1234  -0.1229  -0.1207  -0.1207  -0.1207  -0.0823
    -0.0823  -0.0823  -0.0201  -0.0201  -0.0103  -0.0103  -0.0103  -0.0082
    -0.0082  -0.0082  -0.0079  -0.0079  -0.0079  -0.0079  -0.0079  -0.0068
    -0.0068  -0.0068  -0.0063  -0.0054  -0.0054  -0.0054   0.0084   1.0875
     1.0875   1.0875   1.1601   1.1601   1.1863   1.1922   1.1922   1.1922
     1.1934   1.1934   1.1934   1.1963   1.1963   1.1964   1.1964   1.1964
     1.2077   1.2077   1.2077   1.2117   1.2117   1.2117   1.5913   2.6319
     2.6319   2.6319   2.7924   2.7966   2.7966   2.7966   2.9082   3.0269
     3.0269   3.1409   3.1409   3.1409   3.2453   3.2453   3.2453   3.2492
     3.2492   3.2502   3.2559   3.2559   3.2559   3.2582   3.2582   3.2582
     3.2669   3.2669   3.2669   3.2724   3.2724   3.2724   3.3648   3.8258
     3.8258   3.8258   3.9473   3.9473   4.0178   4.0178   4.0178   4.0301
     4.0301   4.0301   4.0327   4.0343   4.0343   4.0343   4.0382   4.0382
     4.0382   4.0399   4.0399   4.0463   4.0572   4.0572   4.0572   4.7782
     4.7782   4.7782   4.9966   4.9966   5.1115   5.1115   5.1115   5.1194
     5.1194   5.1194   5.1215   5.1215   5.1330   5.1330   5.1330   5.8226
     5.8226   7.1736   7.1736   7.1736   8.9585   8.9644   8.9644   8.9644
     8.9803   8.9803   8.9803   9.1448   9.8761   9.8761   9.8761   9.8784
     9.8824   9.8824   9.8894   9.8894   9.8894   9.8907   9.8907   9.8907
     9.8979   9.8979   9.8979   9.9026   9.9026   9.9026   9.9451   9.9451
    10.0119  10.0119  10.0119  10.3741  11.4180  11.4180  11.4181  11.4738
    11.4739  11.4739  11.4825  11.4825  11.4825  11.4890  11.4973  11.4973
    11.4973  11.4986  11.4986  11.4986  11.5065  11.5065  11.5139  11.5139
    11.6481  11.6481  11.6481  12.2462  12.4269

     occupation numbers
     1.0000   1.0000   1.0000   1.0000   1.0000   1.0000   1.0000   1.0000
     1.0000   1.0000   1.0000   1.0000   1.0000   1.0000   1.0000   1.0000
     1.0000   1.0000   1.0000   1.0000   1.0000   1.0000   1.0000   1.0000
     1.0000   1.0000   1.0000   1.0000   1.0000   1.0000   1.0000   1.0000
     1.0000   1.0000   1.0000   1.0000   1.0000   1.0000   1.0000   1.0000
     1.0000   1.0000   1.0000   1.0000   1.0000   1.0000   1.0000   1.0000
     1.0000   1.0000   1.0000   1.0000   1.0000   1.0000   1.0000   1.0000
     1.0000   1.0000   1.0000   1.0000   1.0000   1.0000   1.0000   1.0000
     1.0000   1.0000   1.0000   1.0000   1.0000   1.0000   1.0000   1.0000
     1.0000   1.0000   1.0000   1.0000   1.0000   1.0000   1.0000   1.0000
     1.0000   1.0000   1.0000   1.0000   1.0000   1.0000   1.0000   1.0000
     1.0000   1.0000   1.0000   1.0000   1.0000   1.0000   1.0000   1.0000
     1.0000   1.0000   1.0000   1.0000   1.0000   1.0000   1.0000   1.0000
     1.0000   1.0000   1.0000   1.0000   1.0000   1.0000   1.0000   1.0000
     1.0000   1.0000   1.0000   1.0000   1.0000   1.0000   1.0000   1.0000
     1.0000   1.0000   1.0000   1.0000   1.0000   1.0000   1.0000   1.0000
     1.0000   1.0000   1.0000   1.0000   1.0000   1.0000   1.0000   1.0000
     1.0000   1.0000   1.0000   1.0000   1.0000   1.0000   1.0000   1.0000
     1.0000   1.0000   1.0000   1.0000   1.0000   1.0000   1.0000   1.0000
     1.0000   1.0000   1.0000   1.0000   1.0000   1.0000   1.0000   1.0000
     1.0000   1.0000   1.0000   1.0000   1.0000   1.0000   1.0000   1.0000
     1.0000   1.0000   1.0000   1.0000   1.0000   1.0000   1.0000   1.0000
     1.0000   1.0000   1.0000   1.0000   1.0000   1.0000   1.0000   1.0000
     1.0000   1.0000   1.0000   1.0000   1.0000   1.0000   1.0000   1.0000
     1.0000   1.0000   1.0000   1.0000   1.0000   1.0000   1.0000   1.0000
     1.0000   1.0000   1.0000   1.0000   1.0000   1.0000   1.0000   1.0000
     1.0000   1.0000   1.0000   1.0000   1.0000   1.0000   1.0000   1.0000
     1.0000   1.0000   1.0000   1.0000   1.0000   1.0000   1.0000   1.0000
     1.0000   1.0000   1.0000   1.0000   1.0000   1.0000   1.0000   1.0000
     1.0000   1.0000   1.0000   1.0000   1.0000   1.0000   1.0000   1.0000
     1.0000   1.0000   1.0000   1.0000   1.0000   1.0000   1.0000   1.0000
     1.0000   1.0000   1.0000   1.0000   1.0000   1.0000   1.0000   1.0000
     1.0000   1.0000   1.0000   1.0000   1.0000   1.0000   1.0000   1.0000
     1.0000   1.0000   1.0000   1.0000   1.0000   1.0000   1.0000   1.0000
     1.0000   1.0000   1.0000   1.0000   1.0000   1.0000   1.0000   1.0000
     1.0000   1.0000   1.0000   1.0000   1.0000   1.0000   1.0000   1.0000
     1.0000   0.0000   0.0000   0.0000   0.0000   0.0000   0.0000   0.0000
     0.0000   0.0000   0.0000   0.0000   0.0000   0.0000   0.0000   0.0000
     0.0000   0.0000   0.0000   0.0000   0.0000   0.0000   0.0000   0.0000
     0.0000   0.0000   0.0000   0.0000   0.0000   0.0000   0.0000   0.0000
     0.0000   0.0000   0.0000   0.0000   0.0000   0.0000   0.0000   0.0000
     0.0000   0.0000   0.0000   0.0000   0.0000   0.0000   0.0000   0.0000
     0.0000   0.0000   0.0000   0.0000   0.0000   0.0000   0.0000   0.0000
     0.0000   0.0000   0.0000   0.0000   0.0000

     the Fermi energy is     6.1370 ev

!    total energy              =  -10057.27814674 Ry
     total all-electron energy =   -139695.000057 Ry
     estimated scf accuracy    <          1.5E-09 Ry
     smearing contrib. (-TS)   =      -0.00000000 Ry
     internal energy E=F+TS    =  -10057.27814674 Ry

     The total energy is F=E-TS. E is the sum of the following terms:
     one-electron contribution =   -2929.58042768 Ry
     hartree contribution      =    2038.74452215 Ry
     xc contribution           =   -1658.12661805 Ry
     ewald contribution        =   -2986.45464114 Ry
     one-center paw contrib.   =   -4521.86098201 Ry
      -> PAW hartree energy AE =     123.27022430 Ry
      -> PAW hartree energy PS =    -122.62833886 Ry
      -> PAW xc energy AE      =    -143.20891694 Ry
      -> PAW xc energy PS      =      47.14752453 Ry
      -> total E_H with PAW    =    2039.38640759 Ry
      -> total E_XC with PAW   =   -1754.18801047 Ry

     total magnetization       =     3.00 Bohr mag/cell
     absolute magnetization    =     3.03 Bohr mag/cell

     convergence has been achieved in  17 iterations

     Writing all to output data dir ./out/Co_q0.save/

     General routines

     Parallel routines

     PAW routines

   This run was terminated on:  18:33:35   6Jul2024

   JOB DONE.