     Program PWSCF v.7.2 starts on  7Jul2024 at  3:26:37

     Reading input from 2.Co_vac_in_ZnS.scf.q0.in

     Current dimensions of program PWSCF are:
     Max number of different atomic species (ntypx) = 10
     Max number of k-points (npk) =  40000
     Max angular momentum in pseudopotentials (lmaxx) =  4
     file S.pbe-n-kjpaw_psl.1.0.0.UPF: wavefunction(s)  3S 3P renormalized
     file Zn.pbe-dnl-kjpaw_psl.1.0.0.UPF: wavefunction(s)  4S 3D renormalized
     file Co.pbe-spn-kjpaw_psl.0.3.1.UPF: wavefunction(s)  3P 3D renormalized

     K-points division:     npool     =       7
     R & G space division:  proc/nbgrp/npool/nimage =     112
     Subspace diagonalization in iterative solution of the eigenvalue problem:
     one sub-group per band group will be used

     Using Slab Decomposition

     bravais-lattice index     =            1
     lattice parameter (alat)  =      20.5686  a.u.
     unit-cell volume          =    8701.8437 (a.u.)^3
     number of atoms/cell      =           63
     number of atomic types    =            3
     number of electrons       =       575.00
     number of Kohn-Sham states=          346
     kinetic-energy cutoff     =     150.0000  Ry
     charge density cutoff     =     600.0000  Ry
     scf convergence threshold =      1.0E-08
     mixing beta               =       0.7000
     number of iterations used =            8  plain     mixing
     Exchange-correlation= SLA  PW   PBX  PBC
                           (   1   4   3   4   0   0   0)

     celldm(1)=  20.568554  celldm(2)=   0.000000  celldm(3)=   0.000000
     celldm(4)=   0.000000  celldm(5)=   0.000000  celldm(6)=   0.000000

     crystal axes: (cart. coord. in units of alat)
               a(1) = (   1.000000   0.000000   0.000000 )
               a(2) = (   0.000000   1.000000   0.000000 )
               a(3) = (   0.000000   0.000000   1.000000 )

     reciprocal axes: (cart. coord. in units 2 pi/alat)
               b(1) = (  1.000000  0.000000  0.000000 )
               b(2) = (  0.000000  1.000000  0.000000 )
               b(3) = (  0.000000  0.000000  1.000000 )

     PseudoPot. # 1 for S  read from file:
     /arf/home/amuhaymin/pseudo/S.pbe-n-kjpaw_psl.1.0.0.UPF
     MD5 check sum: fb45dfebcf3e72a4e1bd4a866ec2e262
     Pseudo is Projector augmented-wave + core cor, Zval =  6.0
     Generated using &quot;atomic&quot; code by A. Dal Corso  v.6.3
     Shape of augmentation charge: PSQ
     Using radial grid of 1151 points,  6 beta functions with:
                l(1) =   0
                l(2) =   0
                l(3) =   1
                l(4) =   1
                l(5) =   2
                l(6) =   2
     Q(r) pseudized with 0 coefficients

     PseudoPot. # 2 for Zn read from file:
     /arf/home/amuhaymin/pseudo/Zn.pbe-dnl-kjpaw_psl.1.0.0.UPF
     MD5 check sum: c608214d9520ac179f507641260889e3
     Pseudo is Projector augmented-wave + core cor, Zval = 12.0
     Generated using &quot;atomic&quot; code by A. Dal Corso  v.6.2.2
     Shape of augmentation charge: PSQ
     Using radial grid of 1201 points,  6 beta functions with:
                l(1) =   0
                l(2) =   0
                l(3) =   1
                l(4) =   1
                l(5) =   2
                l(6) =   2
     Q(r) pseudized with 0 coefficients

     PseudoPot. # 3 for Co read from file:
     /arf/home/amuhaymin/pseudo/Co.pbe-spn-kjpaw_psl.0.3.1.UPF
     MD5 check sum: b0a1ad65bf214e88c1f3d33b20c7d919
     Pseudo is Projector augmented-wave + core cor, Zval = 17.0
     Generated using &quot;atomic&quot; code by A. Dal Corso  v.6.2.2
     Shape of augmentation charge: PSQ
     Using radial grid of 1193 points,  6 beta functions with:
                l(1) =   0
                l(2) =   0
                l(3) =   1
                l(4) =   1
                l(5) =   2
                l(6) =   2
     Q(r) pseudized with 0 coefficients

     atomic species   valence    mass     pseudopotential
        S              6.00    32.06500     S ( 1.00)
        Zn            12.00    65.38000     Zn( 1.00)
        Co            17.00    63.54600     Co( 1.00)

     Starting magnetic structure
     atomic species   magnetization
        S            0.000
        Zn           0.000
        Co           0.176

      6 Sym. Ops. (no inversion) found

                                    s                        frac. trans.

      isym =  1     identity

 cryst.   s( 1) = (     1          0          0      )
                  (     0          1          0      )
                  (     0          0          1      )

 cart.    s( 1) = (  1.0000000  0.0000000  0.0000000 )
                  (  0.0000000  1.0000000  0.0000000 )
                  (  0.0000000  0.0000000  1.0000000 )

      isym =  2     120 deg rotation - cart. axis [-1,-1,-1]

[...]

      isym =  3     120 deg rotation - cart. axis [1,1,1]

[...]

      isym =  4     inv. 180 deg rotation - cart. axis [1,-1,0]

[...]

      isym =  6     inv. 180 deg rotation - cart. axis [0,1,-1]

 cryst.   s( 6) = (     1          0          0      )
                  (     0          0          1      )
                  (     0          1          0      )

 cart.    s( 6) = (  1.0000000  0.0000000  0.0000000 )
                  (  0.0000000  0.0000000  1.0000000 )
                  (  0.0000000  1.0000000  0.0000000 )

     point group C_3v (3m)
     there are  3 classes
     the character table:

       E     2C3   3s_v
A_1    1.00  1.00  1.00
A_2    1.00  1.00 -1.00
E      2.00 -1.00  0.00

     the symmetry operations in each class and the name of the first element:

     E        1
          identity
     2C3      2    3
          120 deg rotation - cart. axis [-1,-1,-1]
     3s_v     4    5    6
          inv. 180 deg rotation - cart. axis [1,-1,0]

   Cartesian axes

     site n.     atom                  positions (alat units)
         1           Zn  tau(   1) = (   0.0001735   0.0001735   0.0001735  )
         2           Zn  tau(   2) = (  -0.0007469   0.2501785   0.2501785  )
         3           Zn  tau(   3) = (   0.2501785  -0.0007469   0.2501785  )
         4           Zn  tau(   4) = (   0.2501785   0.2501785  -0.0007469  )
         5           S   tau(   5) = (   0.1244194   0.3756114   0.3756114  )
         6           S   tau(   6) = (   0.1253147   0.1253147   0.1253147  )
         7           S   tau(   7) = (   0.3756114   0.3756114   0.1244194  )
         8           S   tau(   8) = (   0.3756114   0.1244194   0.3756114  )
         9           Zn  tau(   9) = (  -0.0021128  -0.0021128   0.5011590  )
        10           Zn  tau(  10) = (  -0.0028323   0.2538813   0.7489567  )
        11           Zn  tau(  11) = (   0.2538813  -0.0028323   0.7489567  )
        12           Zn  tau(  12) = (   0.2505400   0.2505400   0.5001911  )
        13           S   tau(  13) = (   0.1257082   0.3764886   0.8738463  )
        14           S   tau(  14) = (   0.1249122   0.1249122   0.6257674  )
        15           S   tau(  15) = (   0.3796435   0.3796435   0.6217810  )
        16           S   tau(  16) = (   0.3764886   0.1257082   0.8738463  )
        17           Zn  tau(  17) = (  -0.0021128   0.5011590  -0.0021128  )
        18           Zn  tau(  18) = (  -0.0028323   0.7489567   0.2538813  )
        19           Zn  tau(  19) = (   0.2505400   0.5001911   0.2505400  )
        20           Zn  tau(  20) = (   0.2538813   0.7489567  -0.0028323  )
        21           S   tau(  21) = (   0.1257082   0.8738463   0.3764886  )
        22           S   tau(  22) = (   0.1249122   0.6257674   0.1249122  )
        23           S   tau(  23) = (   0.3764886   0.8738463   0.1257082  )
        24           S   tau(  24) = (   0.3796435   0.6217810   0.3796435  )
        25           Zn  tau(  25) = (  -0.0019362   0.5003273   0.5003273  )
        26           Zn  tau(  26) = (  -0.0003079   0.7507243   0.7507243  )
        27           Zn  tau(  27) = (   0.2519393   0.5020620   0.7495543  )
        28           Zn  tau(  28) = (   0.2519393   0.7495543   0.5020620  )
        29           S   tau(  29) = (   0.1263401   0.8750072   0.8750072  )
        30           S   tau(  30) = (   0.1248762   0.6250987   0.6250987  )
        31           S   tau(  31) = (   0.3822471   0.8684635   0.6265790  )
        32           S   tau(  32) = (   0.3822471   0.6265790   0.8684635  )
        33           Zn  tau(  33) = (   0.5011590  -0.0021128  -0.0021128  )
        34           Zn  tau(  34) = (   0.5001911   0.2505400   0.2505400  )
        35           Zn  tau(  35) = (   0.7489567  -0.0028323   0.2538813  )
        36           Zn  tau(  36) = (   0.7489567   0.2538813  -0.0028323  )
        37           S   tau(  37) = (   0.6217810   0.3796435   0.3796435  )
        38           S   tau(  38) = (   0.6257674   0.1249122   0.1249122  )
        39           S   tau(  39) = (   0.8738463   0.3764886   0.1257082  )
        40           S   tau(  40) = (   0.8738463   0.1257082   0.3764886  )
        41           Zn  tau(  41) = (   0.5003273  -0.0019362   0.5003273  )
        42           Zn  tau(  42) = (   0.5020620   0.2519393   0.7495543  )
        43           Zn  tau(  43) = (   0.7507243  -0.0003079   0.7507243  )
        44           Zn  tau(  44) = (   0.7495543   0.2519393   0.5020620  )
        45           S   tau(  45) = (   0.6265790   0.3822471   0.8684635  )
        46           S   tau(  46) = (   0.6250987   0.1248762   0.6250987  )
        47           S   tau(  47) = (   0.8684635   0.3822471   0.6265790  )
        48           S   tau(  48) = (   0.8750072   0.1263401   0.8750072  )
        49           Zn  tau(  49) = (   0.5003273   0.5003273  -0.0019362  )
        50           Zn  tau(  50) = (   0.5020620   0.7495543   0.2519393  )
        51           Zn  tau(  51) = (   0.7495543   0.5020620   0.2519393  )
        52           Zn  tau(  52) = (   0.7507243   0.7507243  -0.0003079  )
        53           S   tau(  53) = (   0.6265790   0.8684635   0.3822471  )
        54           S   tau(  54) = (   0.6250987   0.6250987   0.1248762  )
        55           S   tau(  55) = (   0.8750072   0.8750072   0.1263401  )
        56           S   tau(  56) = (   0.8684635   0.6265790   0.3822471  )
        57           Co  tau(  57) = (   0.4991474   0.4991474   0.4991474  )
        58           Zn  tau(  58) = (   0.5248226   0.7312372   0.7312372  )
        59           Zn  tau(  59) = (   0.7312372   0.5248226   0.7312372  )
        60           Zn  tau(  60) = (   0.7312372   0.7312372   0.5248226  )
        61           S   tau(  61) = (   0.6255550   0.8711602   0.8711602  )
        62           S   tau(  62) = (   0.8711602   0.8711602   0.6255550  )
        63           S   tau(  63) = (   0.8711602   0.6255550   0.8711602  )

   Crystallographic axes

     site n.     atom                  positions (cryst. coord.)
         1           Zn  tau(   1) = (  0.0001735  0.0001735  0.0001735  )
         2           Zn  tau(   2) = ( -0.0007469  0.2501785  0.2501785  )
         3           Zn  tau(   3) = (  0.2501785 -0.0007469  0.2501785  )
         4           Zn  tau(   4) = (  0.2501785  0.2501785 -0.0007469  )
[...]
     atom  28 (R=0.089)  charge= 10.1461  magn=  0.0047
     atom  29 (R=0.086)  charge=  3.7408  magn=  0.0006
     atom  30 (R=0.086)  charge=  3.7432  magn=  0.0012
     atom  31 (R=0.086)  charge=  3.7297  magn=  0.0023
     atom  32 (R=0.086)  charge=  3.7297  magn=  0.0023
     atom  33 (R=0.089)  charge= 10.1368  magn=  0.0017
     atom  34 (R=0.089)  charge= 10.1394  magn=  0.0022
     atom  35 (R=0.089)  charge= 10.1350  magn=  0.0001
     atom  36 (R=0.089)  charge= 10.1350  magn=  0.0001
     atom  37 (R=0.086)  charge=  3.7407  magn=  0.0625
     atom  38 (R=0.086)  charge=  3.7285  magn=  0.0041
     atom  39 (R=0.086)  charge=  3.7389  magn=  0.0046
     atom  40 (R=0.086)  charge=  3.7389  magn=  0.0046
     atom  41 (R=0.089)  charge= 10.1487  magn=  0.0001
     atom  42 (R=0.089)  charge= 10.1461  magn=  0.0047
     atom  43 (R=0.089)  charge= 10.1489  magn=  0.0003
     atom  44 (R=0.089)  charge= 10.1461  magn=  0.0047
     atom  45 (R=0.086)  charge=  3.7297  magn=  0.0023
     atom  46 (R=0.086)  charge=  3.7432  magn=  0.0012
     atom  47 (R=0.086)  charge=  3.7297  magn=  0.0023
     atom  48 (R=0.086)  charge=  3.7408  magn=  0.0006
     atom  49 (R=0.089)  charge= 10.1487  magn=  0.0001
     atom  50 (R=0.089)  charge= 10.1461  magn=  0.0047
     atom  51 (R=0.089)  charge= 10.1461  magn=  0.0047
     atom  52 (R=0.089)  charge= 10.1489  magn=  0.0003
     atom  53 (R=0.086)  charge=  3.7297  magn=  0.0023
     atom  54 (R=0.086)  charge=  3.7432  magn=  0.0012
     atom  55 (R=0.086)  charge=  3.7408  magn=  0.0006
     atom  56 (R=0.086)  charge=  3.7297  magn=  0.0023
     atom  57 (R=0.086)  charge= 14.9572  magn=  2.1831
     atom  58 (R=0.089)  charge= 10.0820  magn=  0.0085
     atom  59 (R=0.089)  charge= 10.0820  magn=  0.0085
     atom  60 (R=0.089)  charge= 10.0820  magn=  0.0085
     atom  61 (R=0.086)  charge=  3.7342  magn=  0.0059
     atom  62 (R=0.086)  charge=  3.7342  magn=  0.0059
     atom  63 (R=0.086)  charge=  3.7342  magn=  0.0059

     End of self-consistent calculation

 ------ SPIN UP ------------

          k = 0.0000 0.0000 0.0000 (269825 PWs)   bands (ev):

   -90.4308 -53.7726 -53.7726 -53.5730  -7.5221  -7.0470  -7.0084  -7.0084
    -6.9833  -6.9833  -6.9524  -6.7378  -6.7378  -6.7361  -6.6946  -6.6946
    -6.6927  -6.6674  -6.6674  -6.6650  -6.6640  -6.6640  -6.6576  -6.6388
    -6.6266  -6.6266  -6.4691  -6.3874  -6.3874  -6.3638  -6.3634  -6.3634
    -6.3249  -6.3155  -6.3155  -0.8304  -0.8157  -0.8157  -0.8143  -0.8079
    -0.8079  -0.7880  -0.7752  -0.7752  -0.7532  -0.7460  -0.7460  -0.6939
    -0.6898  -0.6898  -0.6855  -0.6855  -0.6838  -0.6754  -0.6753  -0.6753
    -0.6724  -0.6724  -0.6698  -0.6698  -0.6689  -0.6662  -0.6618  -0.6618
    -0.6575  -0.6575  -0.6573  -0.6552  -0.6538  -0.6521  -0.6521  -0.6502
    -0.6502  -0.6433  -0.6421  -0.6408  -0.6391  -0.6380  -0.6380  -0.6359
    -0.6359  -0.6300  -0.6300  -0.6276  -0.6271  -0.6271  -0.6266  -0.6140
    -0.6140  -0.6037  -0.6037  -0.5690  -0.5584  -0.5584  -0.5578  -0.5543
    -0.5543  -0.5302  -0.5233  -0.5233  -0.5181  -0.5110  -0.5110  -0.5021
    -0.5021  -0.5010  -0.4925  -0.4815  -0.4815  -0.4787  -0.4770  -0.4770
    -0.4731  -0.4680  -0.4643  -0.4643  -0.4195  -0.3946  -0.3946  -0.3860
    -0.3805  -0.3805  -0.3724  -0.3724  -0.3670  -0.3632  -0.3632  -0.3583
    -0.3579  -0.3551  -0.3551  -0.3529  -0.3479  -0.3479  -0.3448  -0.3402
    -0.3402  -0.3397  -0.3397  -0.3393  -0.3280  -0.3255  -0.3252  -0.3252
    -0.3230  -0.3230  -0.3170  -0.3170  -0.3133  -0.3019  -0.3019  -0.2956
    -0.2955  -0.2955  -0.2945  -0.2882  -0.2882  -0.2827  -0.2827  -0.2808
    -0.2778  -0.2778  -0.2659  -0.2620  -0.2620  -0.2582  -0.2568  -0.2523
    -0.2523  -0.2478  -0.2478  -0.2457  -0.2339  -0.2339  -0.2278  -0.2264
    -0.2264  -0.2242  -0.1693  -0.1693  -0.1311  -0.1191  -0.1191  -0.0942
    -0.0362   0.0150   0.0150   0.0549   0.0559   0.0559   0.3403   0.3604
     0.3604   0.3838   0.9382   0.9382   0.9827   0.9834   0.9929   0.9929
     0.9954   1.0398   1.0398   1.0802   1.3175   1.3175   1.5146   1.5552
     1.5582   1.5582   1.5694   1.5694   1.8024   1.8024   1.8180   2.1933
     2.1933   2.4683   2.5957   2.5957   2.7313   2.7690   2.7690   2.7920
     2.8265   2.8265   2.8558   2.8641   2.8755   2.8755   2.9228   2.9228
     2.9295   2.9665   2.9665   2.9742   3.0048   3.0048   3.0155   3.0276
     3.0338   3.0338   3.1206   3.1388   3.1388   3.2457   3.2457   3.3005
     3.3283   3.3866   3.3866   3.6827   3.6827   3.7649   3.9239   3.9239
     4.2300   4.2300   4.2398   4.2464   4.2603   4.2603   4.2973   4.3426
     4.3426   4.3659   4.3741   4.3741   4.5467   4.5567   4.5567   4.5793
     4.5796   4.5796   4.5921   4.5921   4.6010   4.6103   4.6548   4.6563
     4.6563   4.7941   4.7941   4.9639   4.9639   5.2435   5.3593   5.4219
     5.4219   7.6959   8.2871   8.2871   8.6603   8.7163   8.7163   8.8357
     8.8911   8.8924   8.8924   9.1331   9.5110   9.5110   9.5244   9.7495
     9.7495   9.9042   9.9248   9.9365   9.9365  10.0386  10.0411  10.0411
    10.0560  10.0560  10.1650  10.1650  10.1683  10.1898  10.1928  10.1928
    10.2217  10.2217  10.2259  10.5708  10.6033  10.6033  11.0246  11.2014
    11.2014  11.2205  11.2730  11.2730  11.2855  11.2855  11.3325  11.5735
    11.6795  11.6797  11.8349  11.8721  11.8722  11.8851  11.9887  11.9890
    11.9891  12.0879

     occupation numbers
     1.0000   1.0000   1.0000   1.0000   1.0000   1.0000   1.0000   1.0000
     1.0000   1.0000   1.0000   1.0000   1.0000   1.0000   1.0000   1.0000
     1.0000   1.0000   1.0000   1.0000   1.0000   1.0000   1.0000   1.0000
     1.0000   1.0000   1.0000   1.0000   1.0000   1.0000   1.0000   1.0000
     1.0000   1.0000   1.0000   1.0000   1.0000   1.0000   1.0000   1.0000
     1.0000   1.0000   1.0000   1.0000   1.0000   1.0000   1.0000   1.0000
     1.0000   1.0000   1.0000   1.0000   1.0000   1.0000   1.0000   1.0000
     1.0000   1.0000   1.0000   1.0000   1.0000   1.0000   1.0000   1.0000
     1.0000   1.0000   1.0000   1.0000   1.0000   1.0000   1.0000   1.0000
     1.0000   1.0000   1.0000   1.0000   1.0000   1.0000   1.0000   1.0000
     1.0000   1.0000   1.0000   1.0000   1.0000   1.0000   1.0000   1.0000
     1.0000   1.0000   1.0000   1.0000   1.0000   1.0000   1.0000   1.0000
     1.0000   1.0000   1.0000   1.0000   1.0000   1.0000   1.0000   1.0000
     1.0000   1.0000   1.0000   1.0000   1.0000   1.0000   1.0000   1.0000
     1.0000   1.0000   1.0000   1.0000   1.0000   1.0000   1.0000   1.0000
     1.0000   1.0000   1.0000   1.0000   1.0000   1.0000   1.0000   1.0000
     1.0000   1.0000   1.0000   1.0000   1.0000   1.0000   1.0000   1.0000
     1.0000   1.0000   1.0000   1.0000   1.0000   1.0000   1.0000   1.0000
     1.0000   1.0000   1.0000   1.0000   1.0000   1.0000   1.0000   1.0000
     1.0000   1.0000   1.0000   1.0000   1.0000   1.0000   1.0000   1.0000
     1.0000   1.0000   1.0000   1.0000   1.0000   1.0000   1.0000   1.0000
     1.0000   1.0000   1.0000   1.0000   1.0000   1.0000   1.0000   1.0000
     1.0000   1.0000   1.0000   1.0000   1.0000   1.0000   1.0000   1.0000
     1.0000   1.0000   1.0000   1.0000   1.0000   1.0000   1.0000   1.0000
     1.0000   1.0000   1.0000   1.0000   1.0000   1.0000   1.0000   1.0000
     1.0000   1.0000   1.0000   1.0000   1.0000   1.0000   1.0000   1.0000
     1.0000   1.0000   1.0000   1.0000   1.0000   1.0000   1.0000   1.0000
     1.0000   1.0000   1.0000   1.0000   1.0000   1.0000   1.0000   1.0000
     1.0000   1.0000   1.0000   1.0000   1.0000   1.0000   1.0000   1.0000
     1.0000   1.0000   1.0000   1.0000   1.0000   1.0000   1.0000   1.0000
     1.0000   1.0000   1.0000   1.0000   1.0000   1.0000   1.0000   1.0000
     1.0000   1.0000   1.0000   1.0000   1.0000   1.0000   1.0000   1.0000
     1.0000   1.0000   1.0000   1.0000   1.0000   1.0000   1.0000   1.0000
     1.0000   1.0000   1.0000   1.0000   1.0000   1.0000   1.0000   1.0000
     1.0000   1.0000   1.0000   1.0000   1.0000   1.0000   1.0000   1.0000
     1.0000   1.0000   1.0000   1.0000   1.0000   1.0000   1.0000   1.0000
     1.0000   0.0000   0.0000   0.0000   0.0000   0.0000   0.0000   0.0000
     0.0000   0.0000   0.0000   0.0000   0.0000   0.0000   0.0000   0.0000
     0.0000   0.0000   0.0000   0.0000   0.0000   0.0000   0.0000   0.0000
     0.0000   0.0000   0.0000   0.0000   0.0000   0.0000   0.0000   0.0000
     0.0000   0.0000   0.0000   0.0000   0.0000   0.0000   0.0000   0.0000
     0.0000   0.0000   0.0000   0.0000   0.0000   0.0000   0.0000   0.0000
     0.0000   0.0000   0.0000   0.0000   0.0000   0.0000   0.0000   0.0000
     0.0000   0.0000

[...]

          k =-0.5000-0.5000-0.5000 (269968 PWs)   bands (ev):

[...]

 ------ SPIN DOWN ----------

[...]

          k =-0.2500 0.0000 0.2500 (269929 PWs)   bands (ev):

[...]

          k = 0.2500-0.2500-0.5000 (269988 PWs)   bands (ev):

   -87.7851 -51.1313 -51.1313 -51.1086  -7.3131  -7.2770  -7.0788  -7.0649
    -7.0566  -6.9968  -6.8853  -6.8431  -6.7041  -6.6894  -6.6830  -6.6577
    -6.6344  -6.6227  -6.6089  -6.5708  -6.5562  -6.5439  -6.5144  -6.5108
    -6.5044  -6.4894  -6.4722  -6.4457  -6.4357  -6.4263  -6.4130  -6.4075
    -6.3884  -6.3744  -6.3638  -0.7847  -0.7701  -0.7632  -0.7546  -0.7529
    -0.7482  -0.7436  -0.7427  -0.7390  -0.7335  -0.7300  -0.7290  -0.7254
    -0.7184  -0.7165  -0.7074  -0.7067  -0.7028  -0.7010  -0.6997  -0.6986
    -0.6949  -0.6931  -0.6920  -0.6906  -0.6900  -0.6881  -0.6841  -0.6820
    -0.6765  -0.6742  -0.6737  -0.6717  -0.6708  -0.6691  -0.6667  -0.6626
    -0.6588  -0.6547  -0.6529  -0.6470  -0.6423  -0.6389  -0.6351  -0.6305
    -0.6225  -0.6198  -0.6193  -0.6135  -0.6121  -0.6104  -0.6045  -0.5990
    -0.5935  -0.5882  -0.5828  -0.5781  -0.5739  -0.5701  -0.5685  -0.5640
    -0.5548  -0.5525  -0.5481  -0.5418  -0.5394  -0.5290  -0.5255  -0.5226
    -0.5183  -0.5161  -0.5133  -0.5030  -0.4846  -0.4744  -0.4604  -0.4571
    -0.4488  -0.4384  -0.4319  -0.4300  -0.4248  -0.4198  -0.4146  -0.4132
    -0.4046  -0.3928  -0.3907  -0.3831  -0.3776  -0.3769  -0.3705  -0.3563
    -0.3517  -0.3434  -0.3401  -0.3362  -0.3343  -0.3307  -0.3242  -0.3230
    -0.3221  -0.3198  -0.3157  -0.3143  -0.3116  -0.3096  -0.3081  -0.3065
    -0.3055  -0.3026  -0.3011  -0.2979  -0.2960  -0.2941  -0.2931  -0.2911
    -0.2881  -0.2871  -0.2864  -0.2851  -0.2841  -0.2803  -0.2771  -0.2744
    -0.2711  -0.2662  -0.2654  -0.2610  -0.2590  -0.2567  -0.2516  -0.2507
    -0.2486  -0.2461  -0.2392  -0.2355  -0.2316  -0.2174  -0.2126  -0.2033
    -0.1961  -0.1722  -0.1475  -0.1339  -0.1279  -0.1211  -0.0813  -0.0759
    -0.0729  -0.0686  -0.0537  -0.0349  -0.0208  -0.0187   0.6295   0.6850
     0.7238   0.8554   0.8796   0.8927   0.9469   0.9598   0.9736   0.9844
     1.0283   1.0597   1.0734   1.0897   1.1069   1.1288   1.2302   1.3325
     1.3973   1.5300   1.5878   1.6341   1.6759   1.7478   1.8581   1.9102
     2.3534   2.5490   2.5966   2.6275   2.6427   2.6512   2.6873   2.7441
     2.7978   2.8227   2.8286   2.8789   2.8860   2.9412   2.9969   3.0412
     3.2186   3.2452   3.3202   3.3584   3.4181   3.4480   3.4681   3.5199
     3.5369   3.5535   3.5695   3.5826   3.6062   3.6373   3.6684   3.6836
     3.6931   3.7125   3.7449   3.7513   3.7726   3.7935   3.8202   3.8369
     3.8663   3.9331   3.9459   3.9885   4.0307   4.0699   4.1331   4.1617
     4.2282   4.2463   4.2594   4.2967   4.3600   4.4096   4.4344   4.4567
     4.4880   4.5486   4.7155   4.7892   4.8168   4.8822   4.8981   4.9442
     4.9804   5.0261   5.1142   5.4238   5.5032   5.5121   6.4507   6.7068
     6.7340   8.0372   8.0982   8.7301   8.9763   9.0171   9.0703   9.1282
     9.2881   9.3615   9.4431   9.5255   9.5716   9.5987   9.6453   9.6684
     9.6796   9.7285   9.7730   9.7915   9.8247   9.8820   9.9232   9.9400
     9.9599  10.0066  10.0292  10.0385  10.0692  10.1272  10.1742  10.2546
    10.3625  10.4065  10.4600  10.5107  10.6303  10.7263  10.7724  10.7877
    10.8718  10.9675  11.0495  11.1239  11.1791  11.2615  11.3546  11.3962
    11.4272  11.5027  11.5349  11.5662  11.5982  11.6339  11.6472  11.6582
    11.6981  11.7207

     occupation numbers
     1.0000   1.0000   1.0000   1.0000   1.0000   1.0000   1.0000   1.0000
     1.0000   1.0000   1.0000   1.0000   1.0000   1.0000   1.0000   1.0000
     1.0000   1.0000   1.0000   1.0000   1.0000   1.0000   1.0000   1.0000
     1.0000   1.0000   1.0000   1.0000   1.0000   1.0000   1.0000   1.0000
     1.0000   1.0000   1.0000   1.0000   1.0000   1.0000   1.0000   1.0000
     1.0000   1.0000   1.0000   1.0000   1.0000   1.0000   1.0000   1.0000
     1.0000   1.0000   1.0000   1.0000   1.0000   1.0000   1.0000   1.0000
     1.0000   1.0000   1.0000   1.0000   1.0000   1.0000   1.0000   1.0000
     1.0000   1.0000   1.0000   1.0000   1.0000   1.0000   1.0000   1.0000
     1.0000   1.0000   1.0000   1.0000   1.0000   1.0000   1.0000   1.0000
     1.0000   1.0000   1.0000   1.0000   1.0000   1.0000   1.0000   1.0000
     1.0000   1.0000   1.0000   1.0000   1.0000   1.0000   1.0000   1.0000
     1.0000   1.0000   1.0000   1.0000   1.0000   1.0000   1.0000   1.0000
     1.0000   1.0000   1.0000   1.0000   1.0000   1.0000   1.0000   1.0000
     1.0000   1.0000   1.0000   1.0000   1.0000   1.0000   1.0000   1.0000
     1.0000   1.0000   1.0000   1.0000   1.0000   1.0000   1.0000   1.0000
     1.0000   1.0000   1.0000   1.0000   1.0000   1.0000   1.0000   1.0000
     1.0000   1.0000   1.0000   1.0000   1.0000   1.0000   1.0000   1.0000
     1.0000   1.0000   1.0000   1.0000   1.0000   1.0000   1.0000   1.0000
     1.0000   1.0000   1.0000   1.0000   1.0000   1.0000   1.0000   1.0000
     1.0000   1.0000   1.0000   1.0000   1.0000   1.0000   1.0000   1.0000
     1.0000   1.0000   1.0000   1.0000   1.0000   1.0000   1.0000   1.0000
     1.0000   1.0000   1.0000   1.0000   1.0000   1.0000   1.0000   1.0000
     1.0000   1.0000   1.0000   1.0000   1.0000   1.0000   1.0000   1.0000
     1.0000   1.0000   1.0000   1.0000   1.0000   1.0000   1.0000   1.0000
     1.0000   1.0000   1.0000   1.0000   1.0000   1.0000   1.0000   1.0000
     1.0000   1.0000   1.0000   1.0000   1.0000   1.0000   1.0000   1.0000
     1.0000   1.0000   1.0000   1.0000   1.0000   1.0000   1.0000   1.0000
     1.0000   1.0000   1.0000   1.0000   1.0000   1.0000   1.0000   1.0000
     1.0000   1.0000   1.0000   1.0000   1.0000   1.0000   1.0000   1.0000
     1.0000   1.0000   1.0000   1.0000   1.0000   1.0000   1.0000   1.0000
     1.0000   1.0000   1.0000   1.0000   1.0000   1.0000   1.0000   1.0000
     1.0000   1.0000   1.0000   1.0000   1.0000   1.0000   1.0000   1.0000
     1.0000   1.0000   1.0000   1.0000   1.0000   1.0000   1.0000   1.0000
     1.0000   1.0000   1.0000   1.0000   1.0000   1.0000   1.0000   1.0000
     1.0000   1.0000   1.0000   1.0000   1.0000   1.0000   0.0000   0.0000
     0.0000   0.0000   0.0000   0.0000   0.0000   0.0000   0.0000   0.0000
     0.0000   0.0000   0.0000   0.0000   0.0000   0.0000   0.0000   0.0000
     0.0000   0.0000   0.0000   0.0000   0.0000   0.0000   0.0000   0.0000
     0.0000   0.0000   0.0000   0.0000   0.0000   0.0000   0.0000   0.0000
     0.0000   0.0000   0.0000   0.0000   0.0000   0.0000   0.0000   0.0000
     0.0000   0.0000   0.0000   0.0000   0.0000   0.0000   0.0000   0.0000
     0.0000   0.0000   0.0000   0.0000   0.0000   0.0000   0.0000   0.0000
     0.0000   0.0000

     the Fermi energy is     5.8244 ev

!    total energy              =   -9990.70706562 Ry
     total all-electron energy =   -138896.327856 Ry
     estimated scf accuracy    <          1.8E-09 Ry
     smearing contrib. (-TS)   =      -0.00000000 Ry
     internal energy E=F+TS    =   -9990.70706562 Ry

     The total energy is F=E-TS. E is the sum of the following terms:
     one-electron contribution =   -2938.00094661 Ry
     hartree contribution      =    2036.31886114 Ry
     xc contribution           =   -1652.49029022 Ry
     ewald contribution        =   -2960.86921113 Ry
     one-center paw contrib.   =   -4475.66547880 Ry
      -> PAW hartree energy AE =     123.03552795 Ry
      -> PAW hartree energy PS =    -122.39289700 Ry
      -> PAW xc energy AE      =    -143.19265350 Ry
      -> PAW xc energy PS      =      47.13140457 Ry
      -> total E_H with PAW    =    2036.96149208 Ry
      -> total E_XC with PAW   =   -1748.55153915 Ry

     total magnetization       =     3.00 Bohr mag/cell
     absolute magnetization    =     3.04 Bohr mag/cell

     convergence has been achieved in  18 iterations

     Writing all to output data dir ./out/Co_vac_q0.save/

     General routines

     Parallel routines

     PAW routines

   This run was terminated on:   3:33:52   7Jul2024

   JOB DONE.