     Program PWSCF v.7.2 starts on  7Jul2024 at  1:24:59

     Reading input from 1.Fe_vac_in_ZnS.scf.qp2.unrlxd.in

     Current dimensions of program PWSCF are:
     Max number of different atomic species (ntypx) = 10
     Max number of k-points (npk) =  40000
     Max angular momentum in pseudopotentials (lmaxx) =  4
     file S.pbe-n-kjpaw_psl.1.0.0.UPF: wavefunction(s)  3S 3P renormalized
     file Zn.pbe-dnl-kjpaw_psl.1.0.0.UPF: wavefunction(s)  4S 3D renormalized
     file Fe.pbe-spn-kjpaw_psl.1.0.0.UPF: wavefunction(s)  3P 3D renormalized

     K-points division:     npool     =      13
     R & G space division:  proc/nbgrp/npool/nimage =     112
     Subspace diagonalization in iterative solution of the eigenvalue problem:
     one sub-group per band group will be used

     Using Slab Decomposition

     bravais-lattice index     =            1
     lattice parameter (alat)  =      20.5686  a.u.
     unit-cell volume          =    8701.8437 (a.u.)^3
     number of atoms/cell      =           63
     number of atomic types    =            3
     number of electrons       =       572.00
     number of Kohn-Sham states=          343
     kinetic-energy cutoff     =     150.0000  Ry
     charge density cutoff     =     600.0000  Ry
     scf convergence threshold =      1.0E-08
     mixing beta               =       0.7000
     number of iterations used =            8  plain     mixing
     Exchange-correlation= SLA  PW   PBX  PBC
                           (   1   4   3   4   0   0   0)

     celldm(1)=  20.568554  celldm(2)=   0.000000  celldm(3)=   0.000000
     celldm(4)=   0.000000  celldm(5)=   0.000000  celldm(6)=   0.000000

     crystal axes: (cart. coord. in units of alat)
               a(1) = (   1.000000   0.000000   0.000000 )
               a(2) = (   0.000000   1.000000   0.000000 )
               a(3) = (   0.000000   0.000000   1.000000 )

     reciprocal axes: (cart. coord. in units 2 pi/alat)
               b(1) = (  1.000000  0.000000  0.000000 )
               b(2) = (  0.000000  1.000000  0.000000 )
               b(3) = (  0.000000  0.000000  1.000000 )

     PseudoPot. # 1 for S  read from file:
     /arf/home/amuhaymin/pseudo/S.pbe-n-kjpaw_psl.1.0.0.UPF
     MD5 check sum: fb45dfebcf3e72a4e1bd4a866ec2e262
     Pseudo is Projector augmented-wave + core cor, Zval =  6.0
     Generated using &quot;atomic&quot; code by A. Dal Corso  v.6.3
     Shape of augmentation charge: PSQ
     Using radial grid of 1151 points,  6 beta functions with:
                l(1) =   0
                l(2) =   0
                l(3) =   1
                l(4) =   1
                l(5) =   2
                l(6) =   2
     Q(r) pseudized with 0 coefficients

     PseudoPot. # 2 for Zn read from file:
     /arf/home/amuhaymin/pseudo/Zn.pbe-dnl-kjpaw_psl.1.0.0.UPF
     MD5 check sum: c608214d9520ac179f507641260889e3
     Pseudo is Projector augmented-wave + core cor, Zval = 12.0
     Generated using &quot;atomic&quot; code by A. Dal Corso  v.6.2.2
     Shape of augmentation charge: PSQ
     Using radial grid of 1201 points,  6 beta functions with:
                l(1) =   0
                l(2) =   0
                l(3) =   1
                l(4) =   1
                l(5) =   2
                l(6) =   2
     Q(r) pseudized with 0 coefficients

     PseudoPot. # 3 for Fe read from file:
     /arf/home/amuhaymin/pseudo/Fe.pbe-spn-kjpaw_psl.1.0.0.UPF
     MD5 check sum: fc81f059e5c5069939230b1155715ae8
     Pseudo is Projector augmented-wave + core cor, Zval = 16.0
     Generated using &quot;atomic&quot; code by A. Dal Corso  v.6.3
     Shape of augmentation charge: PSQ
     Using radial grid of 1191 points,  6 beta functions with:
                l(1) =   0
                l(2) =   0
                l(3) =   1
                l(4) =   1
                l(5) =   2
                l(6) =   2
     Q(r) pseudized with 0 coefficients

     atomic species   valence    mass     pseudopotential
        S              6.00    32.06500     S ( 1.00)
        Zn            12.00    65.38000     Zn( 1.00)
        Fe            16.00    63.54600     Fe( 1.00)

     Starting magnetic structure
     atomic species   magnetization
        S            0.000
        Zn           0.000
        Fe           0.250

      6 Sym. Ops. (no inversion) found

                                    s                        frac. trans.

      isym =  1     identity

 cryst.   s( 1) = (     1          0          0      )
                  (     0          1          0      )
                  (     0          0          1      )

 cart.    s( 1) = (  1.0000000  0.0000000  0.0000000 )
                  (  0.0000000  1.0000000  0.0000000 )
                  (  0.0000000  0.0000000  1.0000000 )

      isym =  2     120 deg rotation - cart. axis [-1,-1,-1]

[...]

      isym =  3     120 deg rotation - cart. axis [1,1,1]

[...]

      isym =  4     inv. 180 deg rotation - cart. axis [1,-1,0]

[...]

      isym =  6     inv. 180 deg rotation - cart. axis [0,1,-1]

 cryst.   s( 6) = (     1          0          0      )
                  (     0          0          1      )
                  (     0          1          0      )

 cart.    s( 6) = (  1.0000000  0.0000000  0.0000000 )
                  (  0.0000000  0.0000000  1.0000000 )
                  (  0.0000000  1.0000000  0.0000000 )

     point group C_3v (3m)
     there are  3 classes
     the character table:

       E     2C3   3s_v
A_1    1.00  1.00  1.00
A_2    1.00  1.00 -1.00
E      2.00 -1.00  0.00

     the symmetry operations in each class and the name of the first element:

     E        1
          identity
     2C3      2    3
          120 deg rotation - cart. axis [-1,-1,-1]
     3s_v     4    5    6
          inv. 180 deg rotation - cart. axis [1,-1,0]

   Cartesian axes

     site n.     atom                  positions (alat units)
         1           Zn  tau(   1) = (   0.0000000   0.0000000   0.0000000  )
         2           Zn  tau(   2) = (   0.0000000   0.2500000   0.2500000  )
         3           Zn  tau(   3) = (   0.2500000   0.0000000   0.2500000  )
         4           Zn  tau(   4) = (   0.2500000   0.2500000   0.0000000  )
         5           S   tau(   5) = (   0.1250000   0.3750000   0.3750000  )
         6           S   tau(   6) = (   0.1250000   0.1250000   0.1250000  )
         7           S   tau(   7) = (   0.3750000   0.3750000   0.1250000  )
         8           S   tau(   8) = (   0.3750000   0.1250000   0.3750000  )
         9           Zn  tau(   9) = (   0.0000000   0.0000000   0.5000000  )
        10           Zn  tau(  10) = (   0.0000000   0.2500000   0.7500000  )
        11           Zn  tau(  11) = (   0.2500000   0.0000000   0.7500000  )
        12           Zn  tau(  12) = (   0.2500000   0.2500000   0.5000000  )
        13           S   tau(  13) = (   0.1250000   0.3750000   0.8750000  )
        14           S   tau(  14) = (   0.1250000   0.1250000   0.6250000  )
        15           S   tau(  15) = (   0.3750000   0.3750000   0.6250000  )
        16           S   tau(  16) = (   0.3750000   0.1250000   0.8750000  )
        17           Zn  tau(  17) = (   0.0000000   0.5000000   0.0000000  )
        18           Zn  tau(  18) = (   0.0000000   0.7500000   0.2500000  )
        19           Zn  tau(  19) = (   0.2500000   0.5000000   0.2500000  )
        20           Zn  tau(  20) = (   0.2500000   0.7500000   0.0000000  )
        21           S   tau(  21) = (   0.1250000   0.8750000   0.3750000  )
        22           S   tau(  22) = (   0.1250000   0.6250000   0.1250000  )
        23           S   tau(  23) = (   0.3750000   0.8750000   0.1250000  )
        24           S   tau(  24) = (   0.3750000   0.6250000   0.3750000  )
        25           Zn  tau(  25) = (   0.0000000   0.5000000   0.5000000  )
        26           Zn  tau(  26) = (   0.0000000   0.7500000   0.7500000  )
        27           Zn  tau(  27) = (   0.2500000   0.5000000   0.7500000  )
        28           Zn  tau(  28) = (   0.2500000   0.7500000   0.5000000  )
        29           S   tau(  29) = (   0.1250000   0.8750000   0.8750000  )
        30           S   tau(  30) = (   0.1250000   0.6250000   0.6250000  )
        31           S   tau(  31) = (   0.3750000   0.8750000   0.6250000  )
        32           S   tau(  32) = (   0.3750000   0.6250000   0.8750000  )
        33           Zn  tau(  33) = (   0.5000000   0.0000000   0.0000000  )
        34           Zn  tau(  34) = (   0.5000000   0.2500000   0.2500000  )
        35           Zn  tau(  35) = (   0.7500000   0.0000000   0.2500000  )
        36           Zn  tau(  36) = (   0.7500000   0.2500000   0.0000000  )
        37           S   tau(  37) = (   0.6250000   0.3750000   0.3750000  )
        38           S   tau(  38) = (   0.6250000   0.1250000   0.1250000  )
        39           S   tau(  39) = (   0.8750000   0.3750000   0.1250000  )
        40           S   tau(  40) = (   0.8750000   0.1250000   0.3750000  )
        41           Zn  tau(  41) = (   0.5000000   0.0000000   0.5000000  )
        42           Zn  tau(  42) = (   0.5000000   0.2500000   0.7500000  )
        43           Zn  tau(  43) = (   0.7500000   0.0000000   0.7500000  )
        44           Zn  tau(  44) = (   0.7500000   0.2500000   0.5000000  )
        45           S   tau(  45) = (   0.6250000   0.3750000   0.8750000  )
        46           S   tau(  46) = (   0.6250000   0.1250000   0.6250000  )
        47           S   tau(  47) = (   0.8750000   0.3750000   0.6250000  )
        48           S   tau(  48) = (   0.8750000   0.1250000   0.8750000  )
        49           Zn  tau(  49) = (   0.5000000   0.5000000   0.0000000  )
        50           Zn  tau(  50) = (   0.5000000   0.7500000   0.2500000  )
        51           Zn  tau(  51) = (   0.7500000   0.5000000   0.2500000  )
        52           Zn  tau(  52) = (   0.7500000   0.7500000   0.0000000  )
        53           S   tau(  53) = (   0.6250000   0.8750000   0.3750000  )
        54           S   tau(  54) = (   0.6250000   0.6250000   0.1250000  )
        55           S   tau(  55) = (   0.8750000   0.8750000   0.1250000  )
        56           S   tau(  56) = (   0.8750000   0.6250000   0.3750000  )
        57           Fe  tau(  57) = (   0.5000000   0.5000000   0.5000000  )
        58           Zn  tau(  58) = (   0.5000000   0.7500000   0.7500000  )
        59           Zn  tau(  59) = (   0.7500000   0.5000000   0.7500000  )
        60           Zn  tau(  60) = (   0.7500000   0.7500000   0.5000000  )
        61           S   tau(  61) = (   0.6250000   0.8750000   0.8750000  )
        62           S   tau(  62) = (   0.8750000   0.8750000   0.6250000  )
        63           S   tau(  63) = (   0.8750000   0.6250000   0.8750000  )

   Crystallographic axes

     site n.     atom                  positions (cryst. coord.)
         1           Zn  tau(   1) = (  0.0000000  0.0000000  0.0000000  )
         2           Zn  tau(   2) = (  0.0000000  0.2500000  0.2500000  )
         3           Zn  tau(   3) = (  0.2500000  0.0000000  0.2500000  )
         4           Zn  tau(   4) = (  0.2500000  0.2500000  0.0000000  )
[...]
     atom  26 (R=0.089)  charge= 10.1529  magn=  0.0004
     atom  27 (R=0.089)  charge= 10.1521  magn=  0.0073
     atom  28 (R=0.089)  charge= 10.1521  magn=  0.0073
     atom  29 (R=0.089)  charge=  3.9818  magn=  0.0002
     atom  30 (R=0.089)  charge=  3.9825  magn=  0.0032
     atom  31 (R=0.089)  charge=  3.9751  magn= -0.0025
     atom  32 (R=0.089)  charge=  3.9751  magn= -0.0025
     atom  33 (R=0.089)  charge= 10.1508  magn=  0.0011
     atom  34 (R=0.089)  charge= 10.1504  magn=  0.0045
     atom  35 (R=0.089)  charge= 10.1510  magn= -0.0006
     atom  36 (R=0.089)  charge= 10.1510  magn= -0.0006
     atom  37 (R=0.089)  charge=  3.9801  magn=  0.0809
     atom  38 (R=0.089)  charge=  3.9776  magn=  0.0022
     atom  39 (R=0.089)  charge=  3.9810  magn=  0.0073
     atom  40 (R=0.089)  charge=  3.9810  magn=  0.0073
     atom  41 (R=0.089)  charge= 10.1537  magn=  0.0000
     atom  42 (R=0.089)  charge= 10.1521  magn=  0.0073
     atom  43 (R=0.089)  charge= 10.1529  magn=  0.0004
     atom  44 (R=0.089)  charge= 10.1521  magn=  0.0073
     atom  45 (R=0.089)  charge=  3.9751  magn= -0.0025
     atom  46 (R=0.089)  charge=  3.9825  magn=  0.0032
     atom  47 (R=0.089)  charge=  3.9751  magn= -0.0025
     atom  48 (R=0.089)  charge=  3.9818  magn=  0.0002
     atom  49 (R=0.089)  charge= 10.1537  magn=  0.0000
     atom  50 (R=0.089)  charge= 10.1521  magn=  0.0073
     atom  51 (R=0.089)  charge= 10.1521  magn=  0.0073
     atom  52 (R=0.089)  charge= 10.1529  magn=  0.0004
     atom  53 (R=0.089)  charge=  3.9751  magn= -0.0025
     atom  54 (R=0.089)  charge=  3.9825  magn=  0.0032
     atom  55 (R=0.089)  charge=  3.9818  magn=  0.0002
     atom  56 (R=0.089)  charge=  3.9751  magn= -0.0025
     atom  57 (R=0.089)  charge= 13.9002  magn=  3.3142
     atom  58 (R=0.089)  charge= 10.1168  magn= -0.0045
     atom  59 (R=0.089)  charge= 10.1168  magn= -0.0045
     atom  60 (R=0.089)  charge= 10.1168  magn= -0.0045
     atom  61 (R=0.089)  charge=  3.9748  magn= -0.0024
     atom  62 (R=0.089)  charge=  3.9748  magn= -0.0024
     atom  63 (R=0.089)  charge=  3.9748  magn= -0.0024

     End of self-consistent calculation

 ------ SPIN UP ------------

          k = 0.0000 0.0000 0.0000 (269825 PWs)   bands (ev):

   -83.9614 -50.1936 -50.1936 -49.6123  -7.5584  -7.1557  -7.1276  -7.1276
    -7.0262  -7.0262  -6.9025  -6.8938  -6.8938  -6.8463  -6.7713  -6.7713
    -6.7465  -6.6556  -6.6556  -6.6481  -6.6305  -6.6305  -6.5574  -6.5478
    -6.5478  -6.5442  -6.4616  -6.4616  -6.4393  -6.3315  -6.3243  -6.3243
    -6.2519  -6.2519  -6.2082  -1.0755  -1.0755  -1.0731  -1.0515  -1.0432
    -1.0432  -1.0268  -1.0118  -1.0118  -0.9891  -0.9667  -0.9667  -0.9363
    -0.9363  -0.9211  -0.7459  -0.7459  -0.7452  -0.7367  -0.7320  -0.7320
    -0.7107  -0.7107  -0.7077  -0.6764  -0.6631  -0.6617  -0.6617  -0.6431
    -0.6399  -0.6399  -0.6277  -0.6277  -0.6180  -0.6180  -0.6103  -0.6103
    -0.6071  -0.6055  -0.5989  -0.5989  -0.5979  -0.5968  -0.5949  -0.5853
    -0.5853  -0.5803  -0.5803  -0.5724  -0.5724  -0.5711  -0.5636  -0.5624
    -0.5624  -0.5544  -0.5544  -0.5526  -0.5434  -0.5434  -0.5414  -0.5362
    -0.5315  -0.5315  -0.5158  -0.5158  -0.4997  -0.4822  -0.4822  -0.4757
    -0.4757  -0.4752  -0.4601  -0.4530  -0.4530  -0.4438  -0.4438  -0.4386
    -0.4386  -0.4371  -0.4332  -0.4205  -0.4205  -0.4184  -0.4164  -0.4087
    -0.4087  -0.3739  -0.3647  -0.3647  -0.3586  -0.3317  -0.3317  -0.3194
    -0.3171  -0.3171  -0.3000  -0.3000  -0.2959  -0.2948  -0.2893  -0.2893
    -0.2832  -0.2755  -0.2730  -0.2730  -0.2670  -0.2670  -0.2646  -0.2626
    -0.2626  -0.2539  -0.2486  -0.2452  -0.2452  -0.2367  -0.2367  -0.2355
    -0.2326  -0.2326  -0.2258  -0.2249  -0.2183  -0.2183  -0.2167  -0.2123
    -0.2123  -0.2081  -0.2001  -0.2001  -0.1857  -0.1857  -0.1780  -0.1780
    -0.1756  -0.1571  -0.1143  -0.1143  -0.1056  -0.1021  -0.1021  -0.0826
    -0.0818  -0.0818  -0.0617  -0.0617  -0.0565  -0.0523  -0.0523  -0.0239
     0.0933   0.0933   0.1109   0.1132   0.1283   0.1283   0.2874   0.3750
     0.3750   0.3901   0.9081   0.9081   0.9603   1.0127   1.0127   1.0450
     1.0546   1.0546   1.1014   1.1576   1.2132   1.2132   1.5479   1.5739
     1.5739   1.5763   1.5851   1.5851   1.7042   1.7042   1.8069   1.9503
     1.9503   2.0206   2.0206   2.6298   2.7553   2.7869   2.7869   2.7953
     2.8140   2.8140   2.8267   2.8664   2.8889   2.8889   2.9255   2.9366
     2.9366   2.9910   2.9910   3.0270   3.0270   3.0377   3.0474   3.0630
     3.0630   3.0797   3.1047   3.1047   3.1671   3.1786   3.1786   3.2585
     3.2585   3.2811   3.3346   3.3578   3.3578   3.6747   3.6747   3.7650
     4.2418   4.2418   4.2425   4.2706   4.2791   4.2791   4.2857   4.3438
     4.3438   4.4249   4.4249   4.4348   4.4654   4.5395   4.5395   4.5889
     4.5909   4.5909   4.5926   4.6289   4.6289   4.6968   4.6968   4.6987
     4.7221   4.7221   4.7298   4.7384   4.7384   5.4088   5.4162   5.4162
     5.8670   7.7910   8.1848   8.1848   8.7253   8.8105   8.8105   8.8298
     8.9252   8.9812   8.9812   9.2563   9.6099   9.6099   9.6265   9.9196
     9.9196  10.0439  10.0439  10.0586  10.0770  10.0770  10.1060  10.1231
    10.1231  10.1383  10.1673  10.2172  10.2247  10.2247  10.2497  10.2497
    10.2641  10.2641  10.2925  10.6343  10.6343  10.7159  11.1898  11.2449
    11.2449  11.2792  11.2792  11.3624  11.3769  11.3937  11.3937  11.7419
    11.7419  11.7656  11.9040  11.9335  11.9335  11.9348  12.1188

     occupation numbers
     1.0000   1.0000   1.0000   1.0000   1.0000   1.0000   1.0000   1.0000
     1.0000   1.0000   1.0000   1.0000   1.0000   1.0000   1.0000   1.0000
     1.0000   1.0000   1.0000   1.0000   1.0000   1.0000   1.0000   1.0000
     1.0000   1.0000   1.0000   1.0000   1.0000   1.0000   1.0000   1.0000
     1.0000   1.0000   1.0000   1.0000   1.0000   1.0000   1.0000   1.0000
     1.0000   1.0000   1.0000   1.0000   1.0000   1.0000   1.0000   1.0000
     1.0000   1.0000   1.0000   1.0000   1.0000   1.0000   1.0000   1.0000
     1.0000   1.0000   1.0000   1.0000   1.0000   1.0000   1.0000   1.0000
     1.0000   1.0000   1.0000   1.0000   1.0000   1.0000   1.0000   1.0000
     1.0000   1.0000   1.0000   1.0000   1.0000   1.0000   1.0000   1.0000
     1.0000   1.0000   1.0000   1.0000   1.0000   1.0000   1.0000   1.0000
     1.0000   1.0000   1.0000   1.0000   1.0000   1.0000   1.0000   1.0000
     1.0000   1.0000   1.0000   1.0000   1.0000   1.0000   1.0000   1.0000
     1.0000   1.0000   1.0000   1.0000   1.0000   1.0000   1.0000   1.0000
     1.0000   1.0000   1.0000   1.0000   1.0000   1.0000   1.0000   1.0000
     1.0000   1.0000   1.0000   1.0000   1.0000   1.0000   1.0000   1.0000
     1.0000   1.0000   1.0000   1.0000   1.0000   1.0000   1.0000   1.0000
     1.0000   1.0000   1.0000   1.0000   1.0000   1.0000   1.0000   1.0000
     1.0000   1.0000   1.0000   1.0000   1.0000   1.0000   1.0000   1.0000
     1.0000   1.0000   1.0000   1.0000   1.0000   1.0000   1.0000   1.0000
     1.0000   1.0000   1.0000   1.0000   1.0000   1.0000   1.0000   1.0000
     1.0000   1.0000   1.0000   1.0000   1.0000   1.0000   1.0000   1.0000
     1.0000   1.0000   1.0000   1.0000   1.0000   1.0000   1.0000   1.0000
     1.0000   1.0000   1.0000   1.0000   1.0000   1.0000   1.0000   1.0000
     1.0000   1.0000   1.0000   1.0000   1.0000   1.0000   1.0000   1.0000
     1.0000   1.0000   1.0000   1.0000   1.0000   1.0000   1.0000   1.0000
     1.0000   1.0000   1.0000   1.0000   1.0000   1.0000   1.0000   1.0000
     1.0000   1.0000   1.0000   1.0000   1.0000   1.0000   1.0000   1.0000
     1.0000   1.0000   1.0000   1.0000   1.0000   1.0000   1.0000   1.0000
     1.0000   1.0000   1.0000   1.0000   1.0000   1.0000   1.0000   1.0000
     1.0000   1.0000   1.0000   1.0000   1.0000   1.0000   1.0000   1.0000
     1.0000   1.0000   1.0000   1.0000   1.0000   1.0000   1.0000   1.0000
     1.0000   1.0000   1.0000   1.0000   1.0000   1.0000   1.0000   1.0000
     1.0000   1.0000   1.0000   1.0000   1.0000   1.0000   1.0000   1.0000
     1.0000   1.0000   1.0000   1.0000   1.0000   1.0000   1.0000   1.0000
     1.0000   1.0000   1.0000   1.0000   1.0000   1.0000   1.0000   1.0000
     0.0000   0.0000   0.0000   0.0000   0.0000   0.0000   0.0000   0.0000
     0.0000   0.0000   0.0000   0.0000   0.0000   0.0000   0.0000   0.0000
     0.0000   0.0000   0.0000   0.0000   0.0000   0.0000   0.0000   0.0000
     0.0000   0.0000   0.0000   0.0000   0.0000   0.0000   0.0000   0.0000
     0.0000   0.0000   0.0000   0.0000   0.0000   0.0000   0.0000   0.0000
     0.0000   0.0000   0.0000   0.0000   0.0000   0.0000   0.0000   0.0000
     0.0000   0.0000   0.0000   0.0000   0.0000   0.0000   0.0000

[...]

          k =-0.5000-0.5000-0.5000 (269968 PWs)   bands (ev):

[...]

 ------ SPIN DOWN ----------

[...]

          k =-0.2500 0.0000 0.2500 (269929 PWs)   bands (ev):

[...]

          k = 0.2500-0.2500-0.5000 (269988 PWs)   bands (ev):

   -80.0906 -46.2601 -46.2601 -46.1131  -7.3468  -7.3141  -7.1495  -7.1100
    -7.0749  -7.0527  -6.9676  -6.8520  -6.8021  -6.7744  -6.7591  -6.7378
    -6.6974  -6.6778  -6.6024  -6.5985  -6.5324  -6.5244  -6.5207  -6.5119
    -6.4950  -6.4840  -6.4646  -6.4585  -6.3898  -6.3796  -6.3639  -6.3330
    -6.3279  -6.3121  -6.2531  -1.0738  -1.0733  -1.0728  -1.0560  -1.0454
    -1.0452  -1.0320  -1.0169  -1.0161  -0.9812  -0.9645  -0.9620  -0.9385
    -0.9372  -0.9298  -0.7159  -0.7145  -0.7070  -0.6962  -0.6935  -0.6917
    -0.6843  -0.6817  -0.6716  -0.6661  -0.6625  -0.6603  -0.6566  -0.6490
    -0.6488  -0.6432  -0.6390  -0.6379  -0.6335  -0.6321  -0.6286  -0.6241
    -0.6202  -0.6193  -0.6130  -0.6089  -0.6071  -0.6051  -0.5965  -0.5964
    -0.5946  -0.5893  -0.5827  -0.5794  -0.5741  -0.5722  -0.5704  -0.5661
    -0.5638  -0.5586  -0.5555  -0.5496  -0.5451  -0.5382  -0.5330  -0.5318
    -0.5266  -0.5204  -0.5184  -0.5098  -0.5074  -0.5037  -0.4994  -0.4963
    -0.4949  -0.4892  -0.4820  -0.4773  -0.4639  -0.4622  -0.4535  -0.4523
    -0.4462  -0.4428  -0.4388  -0.4231  -0.4152  -0.4087  -0.3789  -0.3753
    -0.3710  -0.3669  -0.3620  -0.3547  -0.3517  -0.3470  -0.3457  -0.3315
    -0.3227  -0.3126  -0.3058  -0.3032  -0.3012  -0.2925  -0.2872  -0.2792
    -0.2772  -0.2753  -0.2718  -0.2684  -0.2629  -0.2562  -0.2497  -0.2452
    -0.2435  -0.2407  -0.2393  -0.2373  -0.2361  -0.2339  -0.2320  -0.2272
    -0.2215  -0.2181  -0.2154  -0.2120  -0.2087  -0.2065  -0.2040  -0.2031
    -0.2005  -0.1964  -0.1939  -0.1897  -0.1851  -0.1767  -0.1695  -0.1661
    -0.1530  -0.1238  -0.1204  -0.1070  -0.1045  -0.0954  -0.0847  -0.0825
    -0.0766  -0.0713  -0.0639  -0.0544  -0.0480  -0.0358  -0.0190  -0.0042
    -0.0000   0.0163   0.0385   0.0457   0.0673   0.0936   0.6426   0.6653
     0.7755   0.8755   0.9015   0.9165   0.9783   0.9869   1.0047   1.0135
     1.0410   1.0767   1.0955   1.1126   1.1422   1.1631   1.2121   1.3529
     1.4500   1.5522   1.6025   1.6266   1.7096   1.7483   1.8122   1.9163
     2.3943   2.5491   2.6240   2.6418   2.6681   2.6817   2.6983   2.7137
     2.7824   2.8422   2.8631   2.8965   2.9267   2.9682   2.9948   3.0816
     3.2177   3.2575   3.3638   3.3810   3.4213   3.4548   3.4791   3.5290
     3.5497   3.5704   3.5793   3.6058   3.6215   3.6541   3.6919   3.7254
     3.7367   3.7546   3.7864   3.7908   3.7993   3.8223   3.8332   3.8547
     3.8670   4.0128   4.0326   4.0475   4.0790   4.0906   4.1558   4.1780
     4.2479   4.2711   4.3005   4.3268   4.3620   4.3858   4.4919   4.4925
     4.5254   4.5861   4.8223   4.8631   4.9077   4.9314   4.9581   4.9882
     5.0735   5.0917   5.1403   5.3283   6.1426   6.1625   6.2404   6.4532
     6.4819   7.9530   8.0457   8.7369   8.9783   9.1209   9.1422   9.2113
     9.4322   9.4590   9.5120   9.5892   9.6088   9.6735   9.7263   9.7431
     9.7459   9.8184   9.8505   9.8765   9.9051   9.9263   9.9701  10.0410
    10.0554  10.0843  10.1150  10.1365  10.1626  10.2371  10.2910  10.3507
    10.4575  10.4798  10.5010  10.6246  10.7259  10.8454  10.8758  10.8920
    10.9470  11.0428  11.0797  11.1846  11.3167  11.3898  11.4079  11.4723
    11.5242  11.5636  11.5876  11.6056  11.6565  11.6868  11.7089

     occupation numbers
     1.0000   1.0000   1.0000   1.0000   1.0000   1.0000   1.0000   1.0000
     1.0000   1.0000   1.0000   1.0000   1.0000   1.0000   1.0000   1.0000
     1.0000   1.0000   1.0000   1.0000   1.0000   1.0000   1.0000   1.0000
     1.0000   1.0000   1.0000   1.0000   1.0000   1.0000   1.0000   1.0000
     1.0000   1.0000   1.0000   1.0000   1.0000   1.0000   1.0000   1.0000
     1.0000   1.0000   1.0000   1.0000   1.0000   1.0000   1.0000   1.0000
     1.0000   1.0000   1.0000   1.0000   1.0000   1.0000   1.0000   1.0000
     1.0000   1.0000   1.0000   1.0000   1.0000   1.0000   1.0000   1.0000
     1.0000   1.0000   1.0000   1.0000   1.0000   1.0000   1.0000   1.0000
     1.0000   1.0000   1.0000   1.0000   1.0000   1.0000   1.0000   1.0000
     1.0000   1.0000   1.0000   1.0000   1.0000   1.0000   1.0000   1.0000
     1.0000   1.0000   1.0000   1.0000   1.0000   1.0000   1.0000   1.0000
     1.0000   1.0000   1.0000   1.0000   1.0000   1.0000   1.0000   1.0000
     1.0000   1.0000   1.0000   1.0000   1.0000   1.0000   1.0000   1.0000
     1.0000   1.0000   1.0000   1.0000   1.0000   1.0000   1.0000   1.0000
     1.0000   1.0000   1.0000   1.0000   1.0000   1.0000   1.0000   1.0000
     1.0000   1.0000   1.0000   1.0000   1.0000   1.0000   1.0000   1.0000
     1.0000   1.0000   1.0000   1.0000   1.0000   1.0000   1.0000   1.0000
     1.0000   1.0000   1.0000   1.0000   1.0000   1.0000   1.0000   1.0000
     1.0000   1.0000   1.0000   1.0000   1.0000   1.0000   1.0000   1.0000
     1.0000   1.0000   1.0000   1.0000   1.0000   1.0000   1.0000   1.0000
     1.0000   1.0000   1.0000   1.0000   1.0000   1.0000   1.0000   1.0000
     1.0000   1.0000   1.0000   1.0000   1.0000   1.0000   1.0000   1.0000
     1.0000   1.0000   1.0000   1.0000   1.0000   1.0000   1.0000   1.0000
     1.0000   1.0000   1.0000   1.0000   1.0000   1.0000   1.0000   1.0000
     1.0000   1.0000   1.0000   1.0000   1.0000   1.0000   1.0000   1.0000
     1.0000   1.0000   1.0000   1.0000   1.0000   1.0000   1.0000   1.0000
     1.0000   1.0000   1.0000   1.0000   1.0000   1.0000   1.0000   1.0000
     1.0000   1.0000   1.0000   1.0000   1.0000   1.0000   1.0000   1.0000
     1.0000   1.0000   1.0000   1.0000   1.0000   1.0000   1.0000   1.0000
     1.0000   1.0000   1.0000   1.0000   1.0000   1.0000   1.0000   1.0000
     1.0000   1.0000   1.0000   1.0000   1.0000   1.0000   1.0000   1.0000
     1.0000   1.0000   1.0000   1.0000   1.0000   1.0000   1.0000   1.0000
     1.0000   1.0000   1.0000   1.0000   1.0000   1.0000   1.0000   1.0000
     1.0000   1.0000   1.0000   1.0000   1.0000   1.0000   1.0000   1.0000
     1.0000   1.0000   1.0000   1.0000   0.0000   0.0000   0.0000   0.0000
     0.0000   0.0000   0.0000   0.0000   0.0000   0.0000   0.0000   0.0000
     0.0000   0.0000   0.0000   0.0000   0.0000   0.0000   0.0000   0.0000
     0.0000   0.0000   0.0000   0.0000   0.0000   0.0000   0.0000   0.0000
     0.0000   0.0000   0.0000   0.0000   0.0000   0.0000   0.0000   0.0000
     0.0000   0.0000   0.0000   0.0000   0.0000   0.0000   0.0000   0.0000
     0.0000   0.0000   0.0000   0.0000   0.0000   0.0000   0.0000   0.0000
     0.0000   0.0000   0.0000   0.0000   0.0000   0.0000   0.0000

     the Fermi energy is     5.6762 ev

!    total energy              =   -9944.16821831 Ry
     total all-electron energy =   -138655.907196 Ry
     estimated scf accuracy    <          2.1E-09 Ry
     smearing contrib. (-TS)   =      -0.00000000 Ry
     internal energy E=F+TS    =   -9944.16821831 Ry

     The total energy is F=E-TS. E is the sum of the following terms:
     one-electron contribution =   -2895.76590237 Ry
     hartree contribution      =    2012.68992669 Ry
     xc contribution           =   -1648.29118645 Ry
     ewald contribution        =   -2941.96206788 Ry
     one-center paw contrib.   =   -4470.83898830 Ry
      -> PAW hartree energy AE =     123.03296270 Ry
      -> PAW hartree energy PS =    -122.39042771 Ry
      -> PAW xc energy AE      =    -143.18990680 Ry
      -> PAW xc energy PS      =      47.12890293 Ry
      -> total E_H with PAW    =    2013.33246167 Ry
      -> total E_XC with PAW   =   -1744.35219032 Ry

     total magnetization       =     4.00 Bohr mag/cell
     absolute magnetization    =     4.42 Bohr mag/cell

     convergence has been achieved in  18 iterations

     Writing all to output data dir ./out/Fe_vac_qp2_unrlxd.save/

     General routines

     Parallel routines

     PAW routines

   This run was terminated on:   1:30:33   7Jul2024

   JOB DONE.