     Program PWSCF v.7.2 starts on 29Jun2024 at  2:51:32

     Reading input from 2.Fe_in_ZnS.scf.q0.in

     Current dimensions of program PWSCF are:
     Max number of different atomic species (ntypx) = 10
     Max number of k-points (npk) =  40000
     Max angular momentum in pseudopotentials (lmaxx) =  4
     file S.pbe-n-kjpaw_psl.1.0.0.UPF: wavefunction(s)  3S 3P renormalized
     file Zn.pbe-dnl-kjpaw_psl.1.0.0.UPF: wavefunction(s)  4S 3D renormalized
     file Fe.pbe-spn-kjpaw_psl.1.0.0.UPF: wavefunction(s)  3P 3D renormalized

     K-points division:     npool     =       5
     R & G space division:  proc/nbgrp/npool/nimage =     112
     Subspace diagonalization in iterative solution of the eigenvalue problem:
     one sub-group per band group will be used

     Using Slab Decomposition

     bravais-lattice index     =            1
     lattice parameter (alat)  =      20.5686  a.u.
     unit-cell volume          =    8701.8437 (a.u.)^3
     number of atoms/cell      =           64
     number of atomic types    =            3
     number of electrons       =       580.00
     number of Kohn-Sham states=          348
     kinetic-energy cutoff     =     150.0000  Ry
     charge density cutoff     =     600.0000  Ry
     scf convergence threshold =      1.0E-08
     mixing beta               =       0.7000
     number of iterations used =            8  plain     mixing
     Exchange-correlation= SLA  PW   PBX  PBC
                           (   1   4   3   4   0   0   0)

     celldm(1)=  20.568554  celldm(2)=   0.000000  celldm(3)=   0.000000
     celldm(4)=   0.000000  celldm(5)=   0.000000  celldm(6)=   0.000000

     crystal axes: (cart. coord. in units of alat)
               a(1) = (   1.000000   0.000000   0.000000 )
               a(2) = (   0.000000   1.000000   0.000000 )
               a(3) = (   0.000000   0.000000   1.000000 )

     reciprocal axes: (cart. coord. in units 2 pi/alat)
               b(1) = (  1.000000  0.000000  0.000000 )
               b(2) = (  0.000000  1.000000  0.000000 )
               b(3) = (  0.000000  0.000000  1.000000 )

     PseudoPot. # 1 for S  read from file:
     /arf/home/amuhaymin/pseudo/S.pbe-n-kjpaw_psl.1.0.0.UPF
     MD5 check sum: fb45dfebcf3e72a4e1bd4a866ec2e262
     Pseudo is Projector augmented-wave + core cor, Zval =  6.0
     Generated using &quot;atomic&quot; code by A. Dal Corso  v.6.3
     Shape of augmentation charge: PSQ
     Using radial grid of 1151 points,  6 beta functions with:
                l(1) =   0
                l(2) =   0
                l(3) =   1
                l(4) =   1
                l(5) =   2
                l(6) =   2
     Q(r) pseudized with 0 coefficients

     PseudoPot. # 2 for Zn read from file:
     /arf/home/amuhaymin/pseudo/Zn.pbe-dnl-kjpaw_psl.1.0.0.UPF
     MD5 check sum: c608214d9520ac179f507641260889e3
     Pseudo is Projector augmented-wave + core cor, Zval = 12.0
     Generated using &quot;atomic&quot; code by A. Dal Corso  v.6.2.2
     Shape of augmentation charge: PSQ
     Using radial grid of 1201 points,  6 beta functions with:
                l(1) =   0
                l(2) =   0
                l(3) =   1
                l(4) =   1
                l(5) =   2
                l(6) =   2
     Q(r) pseudized with 0 coefficients

     PseudoPot. # 3 for Fe read from file:
     /arf/home/amuhaymin/pseudo/Fe.pbe-spn-kjpaw_psl.1.0.0.UPF
     MD5 check sum: fc81f059e5c5069939230b1155715ae8
     Pseudo is Projector augmented-wave + core cor, Zval = 16.0
     Generated using &quot;atomic&quot; code by A. Dal Corso  v.6.3
     Shape of augmentation charge: PSQ
     Using radial grid of 1191 points,  6 beta functions with:
                l(1) =   0
                l(2) =   0
                l(3) =   1
                l(4) =   1
                l(5) =   2
                l(6) =   2
     Q(r) pseudized with 0 coefficients

     atomic species   valence    mass     pseudopotential
        S              6.00    32.06500     S ( 1.00)
        Zn            12.00    65.38000     Zn( 1.00)
        Fe            16.00    63.54600     Fe( 1.00)

     Starting magnetic structure
     atomic species   magnetization
        S            0.000
        Zn           0.000
        Fe           0.250

     24 Sym. Ops. (no inversion) found

                                    s                        frac. trans.

      isym =  1     identity

 cryst.   s( 1) = (     1          0          0      )
                  (     0          1          0      )
                  (     0          0          1      )

 cart.    s( 1) = (  1.0000000  0.0000000  0.0000000 )
                  (  0.0000000  1.0000000  0.0000000 )
                  (  0.0000000  0.0000000  1.0000000 )

      isym =  2     180 deg rotation - cart. axis [0,0,1]

[...]

 cryst.   s( 9) = (     0          1          0      )
                  (     0          0          1      )
                  (     1          0          0      )

 cart.    s( 9) = (  0.0000000  0.0000000  1.0000000 )
                  (  1.0000000  0.0000000  0.0000000 )
                  (  0.0000000  1.0000000  0.0000000 )

[...]

 cryst.   s(10) = (     0         -1          0      )
                  (     0          0         -1      )
                  (     1          0          0      )

 cart.    s(10) = (  0.0000000  0.0000000  1.0000000 )
                  ( -1.0000000  0.0000000  0.0000000 )
                  (  0.0000000 -1.0000000  0.0000000 )

[...]

      isym = 12     120 deg rotation - cart. axis [-1,-1,1]

[...]

      isym = 13     inv. 180 deg rotation - cart. axis [1,1,0]

[...]

      isym = 24     inv.  90 deg rotation - cart. axis [1,0,0]

 cryst.   s(24) = (    -1          0          0      )
                  (     0          0         -1      )
                  (     0          1          0      )

 cart.    s(24) = ( -1.0000000  0.0000000  0.0000000 )
                  (  0.0000000  0.0000000  1.0000000 )
                  (  0.0000000 -1.0000000  0.0000000 )

     point group T_d (-43m)
     there are  5 classes
     the character table:

       E     8C3   3C2   6S4   6s_d
A_1    1.00  1.00  1.00  1.00  1.00
A_2    1.00  1.00  1.00 -1.00 -1.00
E      2.00 -1.00  2.00  0.00  0.00
T_1    3.00  0.00 -1.00  1.00 -1.00
T_2    3.00  0.00 -1.00 -1.00  1.00

     the symmetry operations in each class and the name of the first element:

     E        1
          identity
     8C3      5    7    8    6   12    9   10   11
          120 deg rotation - cart. axis [-1,-1,-1]
     3C2      2    3    4
          180 deg rotation - cart. axis [0,0,1]
     6S4     15   16   20   19   23   24
          inv.  90 deg rotation - cart. axis [0,0,-1]
     6s_d    13   14   17   18   21   22
          inv. 180 deg rotation - cart. axis [1,1,0]

   Cartesian axes

     site n.     atom                  positions (alat units)
         1           Zn  tau(   1) = (   0.0000000   0.0000000   0.0000000  )
         2           Zn  tau(   2) = (   0.0000768   0.2500361   0.2500361  )
         3           Zn  tau(   3) = (   0.2500361   0.0000768   0.2500361  )
         4           Zn  tau(   4) = (   0.2500361   0.2500361   0.0000768  )
         5           S   tau(   5) = (   0.1250707   0.3750436   0.3750436  )
         6           S   tau(   6) = (   0.1250009   0.1250009   0.1250009  )
         7           S   tau(   7) = (   0.3750436   0.3750436   0.1250707  )
         8           S   tau(   8) = (   0.3750436   0.1250707   0.3750436  )
         9           Zn  tau(   9) = (   0.0000000   0.0000000   0.5000000  )
        10           Zn  tau(  10) = (  -0.0000768   0.2500361   0.7499639  )
        11           Zn  tau(  11) = (   0.2500361  -0.0000768   0.7499639  )
        12           Zn  tau(  12) = (   0.2502072   0.2502072   0.5002164  )
        13           S   tau(  13) = (   0.1250639   0.3749724   0.8749361  )
        14           S   tau(  14) = (   0.1250639   0.1250639   0.6250276  )
        15           S   tau(  15) = (   0.3761959   0.3761959   0.6238041  )
        16           S   tau(  16) = (   0.3749724   0.1250639   0.8749361  )
        17           Zn  tau(  17) = (   0.0000000   0.5000000   0.0000000  )
        18           Zn  tau(  18) = (  -0.0000768   0.7499639   0.2500361  )
        19           Zn  tau(  19) = (   0.2502072   0.5002164   0.2502072  )
        20           Zn  tau(  20) = (   0.2500361   0.7499639  -0.0000768  )
        21           S   tau(  21) = (   0.1250639   0.8749361   0.3749724  )
        22           S   tau(  22) = (   0.1250639   0.6250276   0.1250639  )
        23           S   tau(  23) = (   0.3749724   0.8749361   0.1250639  )
        24           S   tau(  24) = (   0.3761959   0.6238041   0.3761959  )
        25           Zn  tau(  25) = (   0.0000000   0.5000000   0.5000000  )
        26           Zn  tau(  26) = (   0.0000768   0.7499639   0.7499639  )
        27           Zn  tau(  27) = (   0.2502072   0.4997836   0.7497928  )
        28           Zn  tau(  28) = (   0.2502072   0.7497928   0.4997836  )
        29           S   tau(  29) = (   0.1250009   0.8749991   0.8749991  )
        30           S   tau(  30) = (   0.1250707   0.6249564   0.6249564  )
        31           S   tau(  31) = (   0.3750436   0.8749293   0.6249564  )
        32           S   tau(  32) = (   0.3750436   0.6249564   0.8749293  )
        33           Zn  tau(  33) = (   0.5000000   0.0000000   0.0000000  )
        34           Zn  tau(  34) = (   0.5002164   0.2502072   0.2502072  )
        35           Zn  tau(  35) = (   0.7499639  -0.0000768   0.2500361  )
        36           Zn  tau(  36) = (   0.7499639   0.2500361  -0.0000768  )
        37           S   tau(  37) = (   0.6238041   0.3761959   0.3761959  )
        38           S   tau(  38) = (   0.6250276   0.1250639   0.1250639  )
        39           S   tau(  39) = (   0.8749361   0.3749724   0.1250639  )
        40           S   tau(  40) = (   0.8749361   0.1250639   0.3749724  )
        41           Zn  tau(  41) = (   0.5000000   0.0000000   0.5000000  )
        42           Zn  tau(  42) = (   0.4997836   0.2502072   0.7497928  )
        43           Zn  tau(  43) = (   0.7499639   0.0000768   0.7499639  )
        44           Zn  tau(  44) = (   0.7497928   0.2502072   0.4997836  )
        45           S   tau(  45) = (   0.6249564   0.3750436   0.8749293  )
        46           S   tau(  46) = (   0.6249564   0.1250707   0.6249564  )
        47           S   tau(  47) = (   0.8749293   0.3750436   0.6249564  )
        48           S   tau(  48) = (   0.8749991   0.1250009   0.8749991  )
        49           Zn  tau(  49) = (   0.5000000   0.5000000   0.0000000  )
        50           Zn  tau(  50) = (   0.4997836   0.7497928   0.2502072  )
        51           Zn  tau(  51) = (   0.7497928   0.4997836   0.2502072  )
        52           Zn  tau(  52) = (   0.7499639   0.7499639   0.0000768  )
        53           S   tau(  53) = (   0.6249564   0.8749293   0.3750436  )
        54           S   tau(  54) = (   0.6249564   0.6249564   0.1250707  )
        55           S   tau(  55) = (   0.8749991   0.8749991   0.1250009  )
[...]
     atom  30 (R=0.088)  charge=  3.9270  magn=  0.0006
     atom  31 (R=0.088)  charge=  3.9270  magn=  0.0006
     atom  32 (R=0.088)  charge=  3.9270  magn=  0.0006
     atom  33 (R=0.089)  charge= 10.1590  magn=  0.0012
     atom  34 (R=0.089)  charge= 10.1585  magn=  0.0042
     atom  35 (R=0.089)  charge= 10.1593  magn=  0.0001
     atom  36 (R=0.089)  charge= 10.1593  magn=  0.0001
     atom  37 (R=0.088)  charge=  3.9329  magn=  0.0516
     atom  38 (R=0.088)  charge=  3.9266  magn=  0.0042
     atom  39 (R=0.088)  charge=  3.9266  magn=  0.0042
     atom  40 (R=0.088)  charge=  3.9266  magn=  0.0042
     atom  41 (R=0.089)  charge= 10.1598  magn=  0.0001
     atom  42 (R=0.089)  charge= 10.1585  magn=  0.0042
     atom  43 (R=0.089)  charge= 10.1593  magn=  0.0001
     atom  44 (R=0.089)  charge= 10.1585  magn=  0.0042
     atom  45 (R=0.088)  charge=  3.9270  magn=  0.0006
     atom  46 (R=0.088)  charge=  3.9270  magn=  0.0006
     atom  47 (R=0.088)  charge=  3.9270  magn=  0.0006
     atom  48 (R=0.088)  charge=  3.9274  magn=  0.0005
     atom  49 (R=0.089)  charge= 10.1598  magn=  0.0001
     atom  50 (R=0.089)  charge= 10.1585  magn=  0.0042
     atom  51 (R=0.089)  charge= 10.1585  magn=  0.0042
     atom  52 (R=0.089)  charge= 10.1593  magn=  0.0001
     atom  53 (R=0.088)  charge=  3.9270  magn=  0.0006
     atom  54 (R=0.088)  charge=  3.9270  magn=  0.0006
     atom  55 (R=0.088)  charge=  3.9274  magn=  0.0005
     atom  56 (R=0.088)  charge=  3.9270  magn=  0.0006
     atom  57 (R=0.088)  charge= 13.9520  magn=  3.1509
     atom  58 (R=0.089)  charge= 10.1585  magn=  0.0042
     atom  59 (R=0.089)  charge= 10.1585  magn=  0.0042
     atom  60 (R=0.089)  charge= 10.1585  magn=  0.0042
     atom  61 (R=0.088)  charge=  3.9266  magn=  0.0042
     atom  62 (R=0.088)  charge=  3.9329  magn=  0.0516
     atom  63 (R=0.088)  charge=  3.9266  magn=  0.0042
     atom  64 (R=0.088)  charge=  3.9266  magn=  0.0042

     End of self-consistent calculation

 ------ SPIN UP ------------

          k = 0.0000 0.0000 0.0000 (269825 PWs)   bands (ev):

   -82.4438 -48.5020 -48.5020 -48.5020  -7.4255  -6.8866  -6.8866  -6.8866
    -6.8858  -6.8858  -6.8799  -6.5668  -6.5668  -6.5668  -6.5626  -6.5626
    -6.5626  -6.5625  -6.5625  -6.5625  -6.5625  -6.5625  -6.5574  -6.5397
    -6.5397  -6.5397  -6.5313  -6.2405  -6.2405  -6.2405  -6.2365  -6.2365
    -6.2365  -6.2332  -6.2332  -6.2332  -0.6816  -0.6816  -0.6804  -0.6766
    -0.6766  -0.6766  -0.6479  -0.6474  -0.6474  -0.6344  -0.6344  -0.6344
    -0.5303  -0.5303  -0.5303  -0.5292  -0.5292  -0.5286  -0.5286  -0.5286
    -0.5214  -0.5214  -0.5214  -0.5208  -0.5208  -0.5208  -0.5201  -0.5181
    -0.5181  -0.5149  -0.5149  -0.5149  -0.5103  -0.5083  -0.5083  -0.5083
    -0.5005  -0.5005  -0.5005  -0.5005  -0.5005  -0.5005  -0.5003  -0.5003
    -0.5003  -0.4958  -0.4958  -0.4936  -0.4936  -0.4936  -0.4913  -0.4913
    -0.4913  -0.4898  -0.4894  -0.4894  -0.4894  -0.4706  -0.4706  -0.4150
    -0.4150  -0.4150  -0.3699  -0.3699  -0.3699  -0.3667  -0.3667  -0.3667
    -0.3632  -0.3632  -0.3632  -0.3631  -0.3631  -0.3631  -0.3543  -0.3543
    -0.3410  -0.3264  -0.3264  -0.3264  -0.3110  -0.3110  -0.3110  -0.2265
    -0.2265  -0.2265  -0.2168  -0.2168  -0.2168  -0.2104  -0.2104  -0.2095
    -0.1981  -0.1981  -0.1981  -0.1974  -0.1972  -0.1972  -0.1958  -0.1903
    -0.1903  -0.1788  -0.1788  -0.1788  -0.1751  -0.1751  -0.1751  -0.1749
    -0.1749  -0.1749  -0.1738  -0.1637  -0.1637  -0.1487  -0.1487  -0.1421
    -0.1421  -0.1421  -0.1321  -0.1321  -0.1321  -0.1274  -0.1274  -0.1251
    -0.1251  -0.1251  -0.1243  -0.1178  -0.1178  -0.1178  -0.1114  -0.1114
    -0.1018  -0.1018  -0.1018  -0.1017  -0.1017  -0.1017  -0.0956  -0.0905
    -0.0905  -0.0892  -0.0048  -0.0048  -0.0048   0.0349   0.0433   0.0433
     0.0433   0.1765   0.1765   0.1765   0.2190   0.2190   0.2190   0.4158
     0.4158   0.4158   0.4597   1.0450   1.0450   1.0861   1.0861   1.0861
     1.0954   1.0954   1.0999   1.2443   1.5012   1.5012   1.5012   1.6972
     1.6972   1.6979   1.6979   1.6979   1.7006   1.7006   1.7006   1.9102
     2.4956   2.4956   2.4956   2.6739   2.6739   2.9259   2.9259   2.9259
     2.9293   2.9293   2.9293   2.9495   2.9685   2.9685   2.9685   3.0146
     3.0146   3.1001   3.1019   3.1019   3.1053   3.1053   3.1053   3.1471
     3.1471   3.1471   3.1507   3.1507   3.1507   3.2299   3.3658   3.3658
     3.3658   3.4244   3.4244   3.4244   3.6425   3.6425   3.6425   4.0346
     4.0346   4.3798   4.3798   4.3798   4.3857   4.3857   4.3857   4.3881
     4.3881   4.3881   4.5043   4.5043   4.5043   4.6999   4.6999   4.6999
     4.7045   4.7045   4.7045   4.7060   4.7241   4.7241   4.7241   4.7261
     4.7261   4.7346   4.7346   4.7346   4.9971   4.9971   5.2106   5.2106
     5.2106   5.7607   5.7607   5.7607   7.6055   8.8351   8.8351   8.8351
     8.9225   9.0482   9.0482   9.0482   9.6580   9.6580   9.6875  10.0046
    10.0046  10.0046  10.0119  10.0119  10.0328  10.1419  10.1419  10.1609
    10.1609  10.1609  10.1783  10.3337  10.3337  10.3337  10.3360  10.3360
    10.3360  10.3464  10.3464  10.3583  10.3583  10.3583  10.8202  11.2595
    11.2595  11.2595  11.3152  11.3152  11.3152  11.4861  11.4861  11.4861
    11.5013  11.5013  11.9184  11.9749  11.9750  11.9750  12.1998  12.1998
    12.1999  12.2060  12.2061  12.2063

     occupation numbers
     1.0000   1.0000   1.0000   1.0000   1.0000   1.0000   1.0000   1.0000
     1.0000   1.0000   1.0000   1.0000   1.0000   1.0000   1.0000   1.0000
     1.0000   1.0000   1.0000   1.0000   1.0000   1.0000   1.0000   1.0000
     1.0000   1.0000   1.0000   1.0000   1.0000   1.0000   1.0000   1.0000
     1.0000   1.0000   1.0000   1.0000   1.0000   1.0000   1.0000   1.0000
     1.0000   1.0000   1.0000   1.0000   1.0000   1.0000   1.0000   1.0000
     1.0000   1.0000   1.0000   1.0000   1.0000   1.0000   1.0000   1.0000
     1.0000   1.0000   1.0000   1.0000   1.0000   1.0000   1.0000   1.0000
     1.0000   1.0000   1.0000   1.0000   1.0000   1.0000   1.0000   1.0000
     1.0000   1.0000   1.0000   1.0000   1.0000   1.0000   1.0000   1.0000
     1.0000   1.0000   1.0000   1.0000   1.0000   1.0000   1.0000   1.0000
     1.0000   1.0000   1.0000   1.0000   1.0000   1.0000   1.0000   1.0000
     1.0000   1.0000   1.0000   1.0000   1.0000   1.0000   1.0000   1.0000
     1.0000   1.0000   1.0000   1.0000   1.0000   1.0000   1.0000   1.0000
     1.0000   1.0000   1.0000   1.0000   1.0000   1.0000   1.0000   1.0000
     1.0000   1.0000   1.0000   1.0000   1.0000   1.0000   1.0000   1.0000
     1.0000   1.0000   1.0000   1.0000   1.0000   1.0000   1.0000   1.0000
     1.0000   1.0000   1.0000   1.0000   1.0000   1.0000   1.0000   1.0000
     1.0000   1.0000   1.0000   1.0000   1.0000   1.0000   1.0000   1.0000
     1.0000   1.0000   1.0000   1.0000   1.0000   1.0000   1.0000   1.0000
     1.0000   1.0000   1.0000   1.0000   1.0000   1.0000   1.0000   1.0000
     1.0000   1.0000   1.0000   1.0000   1.0000   1.0000   1.0000   1.0000
     1.0000   1.0000   1.0000   1.0000   1.0000   1.0000   1.0000   1.0000
     1.0000   1.0000   1.0000   1.0000   1.0000   1.0000   1.0000   1.0000
     1.0000   1.0000   1.0000   1.0000   1.0000   1.0000   1.0000   1.0000
     1.0000   1.0000   1.0000   1.0000   1.0000   1.0000   1.0000   1.0000
     1.0000   1.0000   1.0000   1.0000   1.0000   1.0000   1.0000   1.0000
     1.0000   1.0000   1.0000   1.0000   1.0000   1.0000   1.0000   1.0000
     1.0000   1.0000   1.0000   1.0000   1.0000   1.0000   1.0000   1.0000
     1.0000   1.0000   1.0000   1.0000   1.0000   1.0000   1.0000   1.0000
     1.0000   1.0000   1.0000   1.0000   1.0000   1.0000   1.0000   1.0000
     1.0000   1.0000   1.0000   1.0000   1.0000   1.0000   1.0000   1.0000
     1.0000   1.0000   1.0000   1.0000   1.0000   1.0000   1.0000   1.0000
     1.0000   1.0000   1.0000   1.0000   1.0000   1.0000   1.0000   1.0000
     1.0000   1.0000   1.0000   1.0000   1.0000   1.0000   1.0000   1.0000
     1.0000   1.0000   1.0000   1.0000   1.0000   1.0000   1.0000   1.0000
     1.0000   1.0000   1.0000   1.0000   0.0000   0.0000   0.0000   0.0000
     0.0000   0.0000   0.0000   0.0000   0.0000   0.0000   0.0000   0.0000
     0.0000   0.0000   0.0000   0.0000   0.0000   0.0000   0.0000   0.0000
     0.0000   0.0000   0.0000   0.0000   0.0000   0.0000   0.0000   0.0000
     0.0000   0.0000   0.0000   0.0000   0.0000   0.0000   0.0000   0.0000
     0.0000   0.0000   0.0000   0.0000   0.0000   0.0000   0.0000   0.0000
     0.0000   0.0000   0.0000   0.0000   0.0000   0.0000   0.0000   0.0000
     0.0000   0.0000   0.0000   0.0000

[...]

          k =-0.5000-0.5000-0.5000 (269968 PWs)   bands (ev):

[...]

 ------ SPIN DOWN ----------

[...]

          k = 0.2500-0.5000-0.5000 (269956 PWs)   bands (ev):

[...]

          k =-0.5000-0.5000-0.5000 (269968 PWs)   bands (ev):

   -78.7883 -44.9253 -44.9253 -44.9253  -7.0225  -7.0192  -7.0192  -7.0192
    -7.0093  -7.0093  -7.0093  -6.9526  -6.4009  -6.4009  -6.4009  -6.3994
    -6.3986  -6.3986  -6.3986  -6.3986  -6.3986  -6.3979  -6.3979  -6.3979
    -6.3948  -6.3948  -6.3948  -6.3942  -6.3942  -6.3939  -6.3939  -6.3939
    -6.3434  -6.3266  -6.3266  -6.3266  -0.5910  -0.5883  -0.5883  -0.5883
    -0.5867  -0.5867  -0.5867  -0.5817  -0.5764  -0.5764  -0.5764  -0.5760
    -0.5760  -0.5755  -0.5755  -0.5755  -0.5733  -0.5733  -0.5733  -0.5732
    -0.5732  -0.5623  -0.5623  -0.5623  -0.5583  -0.5573  -0.5573  -0.5569
    -0.5569  -0.5569  -0.5568  -0.5568  -0.5568  -0.5558  -0.5558  -0.5558
    -0.5543  -0.5543  -0.5543  -0.5540  -0.5540  -0.5540  -0.5180  -0.5010
    -0.5010  -0.4943  -0.4943  -0.4943  -0.4238  -0.4234  -0.4234  -0.4234
    -0.4220  -0.4220  -0.4220  -0.4214  -0.4214  -0.4214  -0.4212  -0.4212
    -0.4204  -0.4204  -0.4204  -0.4194  -0.4172  -0.4172  -0.4172  -0.4045
    -0.4045  -0.3495  -0.3495  -0.3495  -0.3102  -0.3102  -0.3102  -0.3099
    -0.3099  -0.3095  -0.3095  -0.3095  -0.3092  -0.3085  -0.3085  -0.3085
    -0.3084  -0.3084  -0.3084  -0.3072  -0.3072  -0.3072  -0.2801  -0.2801
    -0.2798  -0.1672  -0.1672  -0.1672  -0.1598  -0.1598  -0.1596  -0.1596
    -0.1596  -0.1579  -0.1579  -0.1579  -0.1564  -0.1564  -0.1564  -0.1402
    -0.1402  -0.1402  -0.1400  -0.1400  -0.1202  -0.1202  -0.1202  -0.1195
    -0.1195  -0.1193  -0.1184  -0.1184  -0.1184  -0.1178  -0.1178  -0.1178
    -0.1169  -0.1167  -0.1167  -0.1167  -0.1147  -0.1147  -0.1147  -0.0745
    -0.0745  -0.0745  -0.0131  -0.0131  -0.0012  -0.0012  -0.0012  -0.0002
    -0.0002   0.0000   0.0000   0.0000   0.0002   0.0004   0.0004   0.0004
     0.0010   0.0010   0.0010   0.0013   0.0013   0.0013   0.0325   1.1098
     1.1098   1.1098   1.1656   1.1656   1.1942   1.1957   1.1957   1.1957
     1.1967   1.1967   1.1967   1.1983   1.1983   1.1990   1.1990   1.1990
     1.2079   1.2079   1.2079   1.2238   1.2238   1.2238   1.7038   2.6633
     2.6633   2.6633   2.7994   2.8074   2.8074   2.8074   2.9289   3.0947
     3.0947   3.1678   3.1678   3.1678   3.2544   3.2545   3.2545   3.2545
     3.2547   3.2547   3.2578   3.2578   3.2578   3.2580   3.2580   3.2580
     3.2646   3.2646   3.2646   3.2973   3.2973   3.2973   3.4356   3.8803
     3.8803   3.8803   3.9803   3.9803   4.0349   4.0349   4.0349   4.0358
     4.0376   4.0376   4.0376   4.0381   4.0381   4.0381   4.0401   4.0401
     4.0433   4.0538   4.0538   4.0538   4.0578   4.0578   4.0578   4.8437
     4.8437   4.8437   5.0713   5.0713   5.1255   5.1255   5.1255   5.1278
     5.1278   5.1332   5.1332   5.1332   5.1335   5.1335   5.1335   6.7547
     6.7547   7.7574   7.7574   7.7574   8.9728   8.9811   8.9811   8.9811
     8.9883   8.9883   8.9883   9.1646   9.8886   9.8886   9.8886   9.8896
     9.8922   9.8922   9.8926   9.8926   9.8926   9.8978   9.8978   9.8978
     9.8990   9.8990   9.8990   9.9020   9.9020   9.9020  10.0429  10.0429
    10.0784  10.0784  10.0784  10.4452  11.4712  11.4712  11.4712  11.4942
    11.4942  11.4942  11.4962  11.4962  11.4962  11.4966  11.4995  11.4995
    11.4995  11.5053  11.5053  11.5053  11.5067  11.5067  11.5118  11.5118
    11.6849  11.6849  11.6849  12.2479

     occupation numbers
     1.0000   1.0000   1.0000   1.0000   1.0000   1.0000   1.0000   1.0000
     1.0000   1.0000   1.0000   1.0000   1.0000   1.0000   1.0000   1.0000
     1.0000   1.0000   1.0000   1.0000   1.0000   1.0000   1.0000   1.0000
     1.0000   1.0000   1.0000   1.0000   1.0000   1.0000   1.0000   1.0000
     1.0000   1.0000   1.0000   1.0000   1.0000   1.0000   1.0000   1.0000
     1.0000   1.0000   1.0000   1.0000   1.0000   1.0000   1.0000   1.0000
     1.0000   1.0000   1.0000   1.0000   1.0000   1.0000   1.0000   1.0000
     1.0000   1.0000   1.0000   1.0000   1.0000   1.0000   1.0000   1.0000
     1.0000   1.0000   1.0000   1.0000   1.0000   1.0000   1.0000   1.0000
     1.0000   1.0000   1.0000   1.0000   1.0000   1.0000   1.0000   1.0000
     1.0000   1.0000   1.0000   1.0000   1.0000   1.0000   1.0000   1.0000
     1.0000   1.0000   1.0000   1.0000   1.0000   1.0000   1.0000   1.0000
     1.0000   1.0000   1.0000   1.0000   1.0000   1.0000   1.0000   1.0000
     1.0000   1.0000   1.0000   1.0000   1.0000   1.0000   1.0000   1.0000
     1.0000   1.0000   1.0000   1.0000   1.0000   1.0000   1.0000   1.0000
     1.0000   1.0000   1.0000   1.0000   1.0000   1.0000   1.0000   1.0000
     1.0000   1.0000   1.0000   1.0000   1.0000   1.0000   1.0000   1.0000
     1.0000   1.0000   1.0000   1.0000   1.0000   1.0000   1.0000   1.0000
     1.0000   1.0000   1.0000   1.0000   1.0000   1.0000   1.0000   1.0000
     1.0000   1.0000   1.0000   1.0000   1.0000   1.0000   1.0000   1.0000
     1.0000   1.0000   1.0000   1.0000   1.0000   1.0000   1.0000   1.0000
     1.0000   1.0000   1.0000   1.0000   1.0000   1.0000   1.0000   1.0000
     1.0000   1.0000   1.0000   1.0000   1.0000   1.0000   1.0000   1.0000
     1.0000   1.0000   1.0000   1.0000   1.0000   1.0000   1.0000   1.0000
     1.0000   1.0000   1.0000   1.0000   1.0000   1.0000   1.0000   1.0000
     1.0000   1.0000   1.0000   1.0000   1.0000   1.0000   1.0000   1.0000
     1.0000   1.0000   1.0000   1.0000   1.0000   1.0000   1.0000   1.0000
     1.0000   1.0000   1.0000   1.0000   1.0000   1.0000   1.0000   1.0000
     1.0000   1.0000   1.0000   1.0000   1.0000   1.0000   1.0000   1.0000
     1.0000   1.0000   1.0000   1.0000   1.0000   1.0000   1.0000   1.0000
     1.0000   1.0000   1.0000   1.0000   1.0000   1.0000   1.0000   1.0000
     1.0000   1.0000   1.0000   1.0000   1.0000   1.0000   1.0000   1.0000
     1.0000   1.0000   1.0000   1.0000   1.0000   1.0000   1.0000   1.0000
     1.0000   1.0000   1.0000   1.0000   1.0000   1.0000   1.0000   1.0000
     1.0000   1.0000   1.0000   1.0000   1.0000   1.0000   1.0000   1.0000
     1.0000   1.0000   1.0000   1.0000   1.0000   1.0000   1.0000   0.9282
     0.9282   0.0000   0.0000   0.0000   0.0000   0.0000   0.0000   0.0000
     0.0000   0.0000   0.0000   0.0000   0.0000   0.0000   0.0000   0.0000
     0.0000   0.0000   0.0000   0.0000   0.0000   0.0000   0.0000   0.0000
     0.0000   0.0000   0.0000   0.0000   0.0000   0.0000   0.0000   0.0000
     0.0000   0.0000   0.0000   0.0000   0.0000   0.0000   0.0000   0.0000
     0.0000   0.0000   0.0000   0.0000   0.0000   0.0000   0.0000   0.0000
     0.0000   0.0000   0.0000   0.0000   0.0000   0.0000   0.0000   0.0000
     0.0000   0.0000   0.0000   0.0000

     the Fermi energy is     6.7688 ev

!    total energy              =  -10009.81984724 Ry
     total all-electron energy =   -139453.659945 Ry
     estimated scf accuracy    <          7.7E-10 Ry
     smearing contrib. (-TS)   =      -0.00042853 Ry
     internal energy E=F+TS    =  -10009.81941872 Ry

     The total energy is F=E-TS. E is the sum of the following terms:
     one-electron contribution =   -2870.40405196 Ry
     hartree contribution      =    2008.30644855 Ry
     xc contribution           =   -1655.25112418 Ry
     ewald contribution        =   -2975.39917121 Ry
     one-center paw contrib.   =   -4517.07151991 Ry
      -> PAW hartree energy AE =     123.27527319 Ry
      -> PAW hartree energy PS =    -122.63340363 Ry
      -> PAW xc energy AE      =    -143.20926020 Ry
      -> PAW xc energy PS      =      47.14786534 Ry
      -> total E_H with PAW    =    2008.94831811 Ry
      -> total E_XC with PAW   =   -1751.31251904 Ry

     total magnetization       =     4.00 Bohr mag/cell
     absolute magnetization    =     4.03 Bohr mag/cell

     convergence has been achieved in  16 iterations

     Writing all to output data dir ./out/Fe_q0.save/

     General routines

     Parallel routines

     PAW routines

   This run was terminated on:   2:57:55  29Jun2024

   JOB DONE.