     Program PWSCF v.7.2 starts on  7Jul2024 at  3: 9:51

     Reading input from 1.Co_vac_in_ZnS.scf.qp1.unrlxd.in

     Current dimensions of program PWSCF are:
     Max number of different atomic species (ntypx) = 10
     Max number of k-points (npk) =  40000
     Max angular momentum in pseudopotentials (lmaxx) =  4
     file S.pbe-n-kjpaw_psl.1.0.0.UPF: wavefunction(s)  3S 3P renormalized
     file Zn.pbe-dnl-kjpaw_psl.1.0.0.UPF: wavefunction(s)  4S 3D renormalized
     file Co.pbe-spn-kjpaw_psl.0.3.1.UPF: wavefunction(s)  3P 3D renormalized

     K-points division:     npool     =       7
     R & G space division:  proc/nbgrp/npool/nimage =     112
     Subspace diagonalization in iterative solution of the eigenvalue problem:
     one sub-group per band group will be used

     Using Slab Decomposition

     bravais-lattice index     =            1
     lattice parameter (alat)  =      20.5686  a.u.
     unit-cell volume          =    8701.8437 (a.u.)^3
     number of atoms/cell      =           63
     number of atomic types    =            3
     number of electrons       =       574.00
     number of Kohn-Sham states=          344
     kinetic-energy cutoff     =     150.0000  Ry
     charge density cutoff     =     600.0000  Ry
     scf convergence threshold =      1.0E-08
     mixing beta               =       0.7000
     number of iterations used =            8  plain     mixing
     Exchange-correlation= SLA  PW   PBX  PBC
                           (   1   4   3   4   0   0   0)

     celldm(1)=  20.568554  celldm(2)=   0.000000  celldm(3)=   0.000000
     celldm(4)=   0.000000  celldm(5)=   0.000000  celldm(6)=   0.000000

     crystal axes: (cart. coord. in units of alat)
               a(1) = (   1.000000   0.000000   0.000000 )
               a(2) = (   0.000000   1.000000   0.000000 )
               a(3) = (   0.000000   0.000000   1.000000 )

     reciprocal axes: (cart. coord. in units 2 pi/alat)
               b(1) = (  1.000000  0.000000  0.000000 )
               b(2) = (  0.000000  1.000000  0.000000 )
               b(3) = (  0.000000  0.000000  1.000000 )

     PseudoPot. # 1 for S  read from file:
     /arf/home/amuhaymin/pseudo/S.pbe-n-kjpaw_psl.1.0.0.UPF
     MD5 check sum: fb45dfebcf3e72a4e1bd4a866ec2e262
     Pseudo is Projector augmented-wave + core cor, Zval =  6.0
     Generated using &quot;atomic&quot; code by A. Dal Corso  v.6.3
     Shape of augmentation charge: PSQ
     Using radial grid of 1151 points,  6 beta functions with:
                l(1) =   0
                l(2) =   0
                l(3) =   1
                l(4) =   1
                l(5) =   2
                l(6) =   2
     Q(r) pseudized with 0 coefficients

     PseudoPot. # 2 for Zn read from file:
     /arf/home/amuhaymin/pseudo/Zn.pbe-dnl-kjpaw_psl.1.0.0.UPF
     MD5 check sum: c608214d9520ac179f507641260889e3
     Pseudo is Projector augmented-wave + core cor, Zval = 12.0
     Generated using &quot;atomic&quot; code by A. Dal Corso  v.6.2.2
     Shape of augmentation charge: PSQ
     Using radial grid of 1201 points,  6 beta functions with:
                l(1) =   0
                l(2) =   0
                l(3) =   1
                l(4) =   1
                l(5) =   2
                l(6) =   2
     Q(r) pseudized with 0 coefficients

     PseudoPot. # 3 for Co read from file:
     /arf/home/amuhaymin/pseudo/Co.pbe-spn-kjpaw_psl.0.3.1.UPF
     MD5 check sum: b0a1ad65bf214e88c1f3d33b20c7d919
     Pseudo is Projector augmented-wave + core cor, Zval = 17.0
     Generated using &quot;atomic&quot; code by A. Dal Corso  v.6.2.2
     Shape of augmentation charge: PSQ
     Using radial grid of 1193 points,  6 beta functions with:
                l(1) =   0
                l(2) =   0
                l(3) =   1
                l(4) =   1
                l(5) =   2
                l(6) =   2
     Q(r) pseudized with 0 coefficients

     atomic species   valence    mass     pseudopotential
        S              6.00    32.06500     S ( 1.00)
        Zn            12.00    65.38000     Zn( 1.00)
        Co            17.00    63.54600     Co( 1.00)

     Starting magnetic structure
     atomic species   magnetization
        S            0.000
        Zn           0.000
        Co           0.235

      6 Sym. Ops. (no inversion) found

                                    s                        frac. trans.

      isym =  1     identity

 cryst.   s( 1) = (     1          0          0      )
                  (     0          1          0      )
                  (     0          0          1      )

 cart.    s( 1) = (  1.0000000  0.0000000  0.0000000 )
                  (  0.0000000  1.0000000  0.0000000 )
                  (  0.0000000  0.0000000  1.0000000 )

      isym =  2     120 deg rotation - cart. axis [-1,-1,-1]

[...]

      isym =  3     120 deg rotation - cart. axis [1,1,1]

[...]

      isym =  4     inv. 180 deg rotation - cart. axis [1,-1,0]

[...]

      isym =  6     inv. 180 deg rotation - cart. axis [0,1,-1]

 cryst.   s( 6) = (     1          0          0      )
                  (     0          0          1      )
                  (     0          1          0      )

 cart.    s( 6) = (  1.0000000  0.0000000  0.0000000 )
                  (  0.0000000  0.0000000  1.0000000 )
                  (  0.0000000  1.0000000  0.0000000 )

     point group C_3v (3m)
     there are  3 classes
     the character table:

       E     2C3   3s_v
A_1    1.00  1.00  1.00
A_2    1.00  1.00 -1.00
E      2.00 -1.00  0.00

     the symmetry operations in each class and the name of the first element:

     E        1
          identity
     2C3      2    3
          120 deg rotation - cart. axis [-1,-1,-1]
     3s_v     4    5    6
          inv. 180 deg rotation - cart. axis [1,-1,0]

   Cartesian axes

     site n.     atom                  positions (alat units)
         1           Zn  tau(   1) = (   0.0000000   0.0000000   0.0000000  )
         2           Zn  tau(   2) = (   0.0000000   0.2500000   0.2500000  )
         3           Zn  tau(   3) = (   0.2500000   0.0000000   0.2500000  )
         4           Zn  tau(   4) = (   0.2500000   0.2500000   0.0000000  )
         5           S   tau(   5) = (   0.1250000   0.3750000   0.3750000  )
         6           S   tau(   6) = (   0.1250000   0.1250000   0.1250000  )
         7           S   tau(   7) = (   0.3750000   0.3750000   0.1250000  )
         8           S   tau(   8) = (   0.3750000   0.1250000   0.3750000  )
         9           Zn  tau(   9) = (   0.0000000   0.0000000   0.5000000  )
        10           Zn  tau(  10) = (   0.0000000   0.2500000   0.7500000  )
        11           Zn  tau(  11) = (   0.2500000   0.0000000   0.7500000  )
        12           Zn  tau(  12) = (   0.2500000   0.2500000   0.5000000  )
        13           S   tau(  13) = (   0.1250000   0.3750000   0.8750000  )
        14           S   tau(  14) = (   0.1250000   0.1250000   0.6250000  )
        15           S   tau(  15) = (   0.3750000   0.3750000   0.6250000  )
        16           S   tau(  16) = (   0.3750000   0.1250000   0.8750000  )
        17           Zn  tau(  17) = (   0.0000000   0.5000000   0.0000000  )
        18           Zn  tau(  18) = (   0.0000000   0.7500000   0.2500000  )
        19           Zn  tau(  19) = (   0.2500000   0.5000000   0.2500000  )
        20           Zn  tau(  20) = (   0.2500000   0.7500000   0.0000000  )
        21           S   tau(  21) = (   0.1250000   0.8750000   0.3750000  )
        22           S   tau(  22) = (   0.1250000   0.6250000   0.1250000  )
        23           S   tau(  23) = (   0.3750000   0.8750000   0.1250000  )
        24           S   tau(  24) = (   0.3750000   0.6250000   0.3750000  )
        25           Zn  tau(  25) = (   0.0000000   0.5000000   0.5000000  )
        26           Zn  tau(  26) = (   0.0000000   0.7500000   0.7500000  )
        27           Zn  tau(  27) = (   0.2500000   0.5000000   0.7500000  )
        28           Zn  tau(  28) = (   0.2500000   0.7500000   0.5000000  )
        29           S   tau(  29) = (   0.1250000   0.8750000   0.8750000  )
        30           S   tau(  30) = (   0.1250000   0.6250000   0.6250000  )
        31           S   tau(  31) = (   0.3750000   0.8750000   0.6250000  )
        32           S   tau(  32) = (   0.3750000   0.6250000   0.8750000  )
        33           Zn  tau(  33) = (   0.5000000   0.0000000   0.0000000  )
        34           Zn  tau(  34) = (   0.5000000   0.2500000   0.2500000  )
        35           Zn  tau(  35) = (   0.7500000   0.0000000   0.2500000  )
        36           Zn  tau(  36) = (   0.7500000   0.2500000   0.0000000  )
        37           S   tau(  37) = (   0.6250000   0.3750000   0.3750000  )
        38           S   tau(  38) = (   0.6250000   0.1250000   0.1250000  )
        39           S   tau(  39) = (   0.8750000   0.3750000   0.1250000  )
        40           S   tau(  40) = (   0.8750000   0.1250000   0.3750000  )
        41           Zn  tau(  41) = (   0.5000000   0.0000000   0.5000000  )
        42           Zn  tau(  42) = (   0.5000000   0.2500000   0.7500000  )
        43           Zn  tau(  43) = (   0.7500000   0.0000000   0.7500000  )
        44           Zn  tau(  44) = (   0.7500000   0.2500000   0.5000000  )
        45           S   tau(  45) = (   0.6250000   0.3750000   0.8750000  )
        46           S   tau(  46) = (   0.6250000   0.1250000   0.6250000  )
        47           S   tau(  47) = (   0.8750000   0.3750000   0.6250000  )
        48           S   tau(  48) = (   0.8750000   0.1250000   0.8750000  )
        49           Zn  tau(  49) = (   0.5000000   0.5000000   0.0000000  )
        50           Zn  tau(  50) = (   0.5000000   0.7500000   0.2500000  )
        51           Zn  tau(  51) = (   0.7500000   0.5000000   0.2500000  )
        52           Zn  tau(  52) = (   0.7500000   0.7500000   0.0000000  )
        53           S   tau(  53) = (   0.6250000   0.8750000   0.3750000  )
        54           S   tau(  54) = (   0.6250000   0.6250000   0.1250000  )
        55           S   tau(  55) = (   0.8750000   0.8750000   0.1250000  )
        56           S   tau(  56) = (   0.8750000   0.6250000   0.3750000  )
        57           Co  tau(  57) = (   0.5000000   0.5000000   0.5000000  )
        58           Zn  tau(  58) = (   0.5000000   0.7500000   0.7500000  )
        59           Zn  tau(  59) = (   0.7500000   0.5000000   0.7500000  )
        60           Zn  tau(  60) = (   0.7500000   0.7500000   0.5000000  )
        61           S   tau(  61) = (   0.6250000   0.8750000   0.8750000  )
        62           S   tau(  62) = (   0.8750000   0.8750000   0.6250000  )
        63           S   tau(  63) = (   0.8750000   0.6250000   0.8750000  )

   Crystallographic axes

     site n.     atom                  positions (cryst. coord.)
         1           Zn  tau(   1) = (  0.0000000  0.0000000  0.0000000  )
         2           Zn  tau(   2) = (  0.0000000  0.2500000  0.2500000  )
         3           Zn  tau(   3) = (  0.2500000  0.0000000  0.2500000  )
         4           Zn  tau(   4) = (  0.2500000  0.2500000  0.0000000  )
[...]
     atom  26 (R=0.089)  charge= 10.1566  magn=  0.0001
     atom  27 (R=0.089)  charge= 10.1565  magn=  0.0033
     atom  28 (R=0.089)  charge= 10.1565  magn=  0.0033
     atom  29 (R=0.089)  charge=  3.9877  magn= -0.0007
     atom  30 (R=0.089)  charge=  3.9881  magn=  0.0005
     atom  31 (R=0.089)  charge=  3.9822  magn= -0.0096
     atom  32 (R=0.089)  charge=  3.9822  magn= -0.0096
     atom  33 (R=0.089)  charge= 10.1554  magn= -0.0006
     atom  34 (R=0.089)  charge= 10.1552  magn=  0.0005
     atom  35 (R=0.089)  charge= 10.1551  magn= -0.0017
     atom  36 (R=0.089)  charge= 10.1551  magn= -0.0017
     atom  37 (R=0.089)  charge=  3.9787  magn=  0.0446
     atom  38 (R=0.089)  charge=  3.9849  magn= -0.0032
     atom  39 (R=0.089)  charge=  3.9875  magn=  0.0030
     atom  40 (R=0.089)  charge=  3.9875  magn=  0.0030
     atom  41 (R=0.089)  charge= 10.1567  magn=  0.0000
     atom  42 (R=0.089)  charge= 10.1565  magn=  0.0033
     atom  43 (R=0.089)  charge= 10.1566  magn=  0.0001
     atom  44 (R=0.089)  charge= 10.1565  magn=  0.0033
     atom  45 (R=0.089)  charge=  3.9822  magn= -0.0096
     atom  46 (R=0.089)  charge=  3.9881  magn=  0.0005
     atom  47 (R=0.089)  charge=  3.9822  magn= -0.0096
     atom  48 (R=0.089)  charge=  3.9877  magn= -0.0007
     atom  49 (R=0.089)  charge= 10.1567  magn=  0.0000
     atom  50 (R=0.089)  charge= 10.1565  magn=  0.0033
     atom  51 (R=0.089)  charge= 10.1565  magn=  0.0033
     atom  52 (R=0.089)  charge= 10.1566  magn=  0.0001
     atom  53 (R=0.089)  charge=  3.9822  magn= -0.0096
     atom  54 (R=0.089)  charge=  3.9881  magn=  0.0005
     atom  55 (R=0.089)  charge=  3.9877  magn= -0.0007
     atom  56 (R=0.089)  charge=  3.9822  magn= -0.0096
     atom  57 (R=0.089)  charge= 15.0917  magn=  2.1539
     atom  58 (R=0.089)  charge= 10.1180  magn= -0.0173
     atom  59 (R=0.089)  charge= 10.1180  magn= -0.0173
     atom  60 (R=0.089)  charge= 10.1180  magn= -0.0173
     atom  61 (R=0.089)  charge=  3.9821  magn= -0.0101
     atom  62 (R=0.089)  charge=  3.9821  magn= -0.0101
     atom  63 (R=0.089)  charge=  3.9821  magn= -0.0101

     End of self-consistent calculation

 ------ SPIN UP ------------

          k = 0.0000 0.0000 0.0000 (269825 PWs)   bands (ev):

   -90.0511 -53.4175 -53.4175 -53.1609  -7.5516  -7.0793  -7.0793  -7.0463
    -7.0314  -7.0314  -6.9327  -6.8157  -6.8157  -6.7830  -6.7617  -6.7258
    -6.7258  -6.6954  -6.6954  -6.6787  -6.6787  -6.6703  -6.6349  -6.6259
    -6.6259  -6.6241  -6.4644  -6.4429  -6.4429  -6.3850  -6.3587  -6.3587
    -6.3229  -6.3229  -6.3117  -0.9900  -0.9900  -0.9861  -0.9591  -0.9571
    -0.9571  -0.9363  -0.9128  -0.9128  -0.9064  -0.8760  -0.8760  -0.8530
    -0.8530  -0.8287  -0.7825  -0.7825  -0.7809  -0.7351  -0.7351  -0.7273
    -0.7083  -0.7083  -0.7063  -0.6948  -0.6948  -0.6859  -0.6624  -0.6624
    -0.6606  -0.6510  -0.6502  -0.6502  -0.6454  -0.6454  -0.6451  -0.6436
    -0.6387  -0.6387  -0.6385  -0.6347  -0.6318  -0.6318  -0.6267  -0.6267
    -0.6158  -0.6158  -0.6114  -0.6105  -0.6105  -0.6065  -0.6030  -0.5954
    -0.5954  -0.5921  -0.5921  -0.5921  -0.5852  -0.5788  -0.5788  -0.5749
    -0.5749  -0.5702  -0.5696  -0.5629  -0.5629  -0.5087  -0.5087  -0.5064
    -0.5064  -0.5048  -0.5011  -0.4951  -0.4951  -0.4870  -0.4764  -0.4764
    -0.4739  -0.4739  -0.4719  -0.4630  -0.4630  -0.4599  -0.4518  -0.4518
    -0.4503  -0.4314  -0.4313  -0.4313  -0.3852  -0.3464  -0.3464  -0.3441
    -0.3414  -0.3414  -0.3365  -0.3346  -0.3346  -0.3311  -0.3270  -0.3270
    -0.3200  -0.3158  -0.3158  -0.3151  -0.3141  -0.3025  -0.3025  -0.2990
    -0.2990  -0.2955  -0.2927  -0.2825  -0.2824  -0.2824  -0.2794  -0.2794
    -0.2768  -0.2768  -0.2630  -0.2630  -0.2579  -0.2558  -0.2558  -0.2549
    -0.2515  -0.2515  -0.2434  -0.2303  -0.2303  -0.2272  -0.2255  -0.2255
    -0.2113  -0.2033  -0.2033  -0.2032  -0.1886  -0.1841  -0.1841  -0.1783
    -0.1783  -0.1748  -0.1236  -0.1236  -0.1056  -0.1052  -0.1052  -0.0635
     0.0405   0.0470   0.0470   0.0681   0.0847   0.0847   0.2726   0.3551
     0.3576   0.3576   0.9345   0.9345   0.9500   0.9789   0.9798   0.9798
     1.0359   1.0359   1.1006   1.2622   1.4226   1.4226   1.5450   1.5450
     1.5461   1.5564   1.5637   1.5637   1.7024   1.7024   1.9361   2.3785
     2.3785   2.6405   2.7128   2.7128   2.7700   2.7700   2.7782   2.7803
     2.7863   2.8023   2.8023   2.8624   2.8624   2.8664   2.9457   2.9457
     2.9556   2.9639   2.9639   2.9896   2.9896   2.9944   3.0032   3.0097
     3.0097   3.0777   3.1665   3.1665   3.1870   3.2327   3.2327   3.2731
     3.4459   3.4459   3.4722   3.6985   3.6985   3.9365   4.1233   4.1233
     4.2198   4.2228   4.2228   4.2445   4.2556   4.2556   4.3206   4.3507
     4.3507   4.3915   4.4244   4.4244   4.5084   4.5108   4.5108   4.5487
     4.5562   4.5562   4.5638   4.6250   4.6250   4.6334   4.6399   4.6428
     4.6428   4.8621   4.8621   4.9857   4.9857   5.3785   5.4535   5.4535
     6.1707   7.7911   8.3598   8.3598   8.7815   8.8059   8.8059   8.8658
     8.9591   8.9591   9.0631   9.2530   9.5755   9.5826   9.5826   9.8956
     9.8956  10.0143  10.0143  10.0161  10.0523  10.0523  10.0604  10.0705
    10.0838  10.0838  10.1996  10.2034  10.2086  10.2086  10.2148  10.2148
    10.2400  10.2400  10.2791  10.6374  10.6374  10.7129  11.1487  11.2207
    11.2207  11.2400  11.2400  11.3513  11.3623  11.3674  11.3674  11.7112
    11.7112  11.7492  11.8763  11.9022  11.9022  11.9171  12.0837  12.0948

     occupation numbers
     1.0000   1.0000   1.0000   1.0000   1.0000   1.0000   1.0000   1.0000
     1.0000   1.0000   1.0000   1.0000   1.0000   1.0000   1.0000   1.0000
     1.0000   1.0000   1.0000   1.0000   1.0000   1.0000   1.0000   1.0000
     1.0000   1.0000   1.0000   1.0000   1.0000   1.0000   1.0000   1.0000
     1.0000   1.0000   1.0000   1.0000   1.0000   1.0000   1.0000   1.0000
     1.0000   1.0000   1.0000   1.0000   1.0000   1.0000   1.0000   1.0000
     1.0000   1.0000   1.0000   1.0000   1.0000   1.0000   1.0000   1.0000
     1.0000   1.0000   1.0000   1.0000   1.0000   1.0000   1.0000   1.0000
     1.0000   1.0000   1.0000   1.0000   1.0000   1.0000   1.0000   1.0000
     1.0000   1.0000   1.0000   1.0000   1.0000   1.0000   1.0000   1.0000
     1.0000   1.0000   1.0000   1.0000   1.0000   1.0000   1.0000   1.0000
     1.0000   1.0000   1.0000   1.0000   1.0000   1.0000   1.0000   1.0000
     1.0000   1.0000   1.0000   1.0000   1.0000   1.0000   1.0000   1.0000
     1.0000   1.0000   1.0000   1.0000   1.0000   1.0000   1.0000   1.0000
     1.0000   1.0000   1.0000   1.0000   1.0000   1.0000   1.0000   1.0000
     1.0000   1.0000   1.0000   1.0000   1.0000   1.0000   1.0000   1.0000
     1.0000   1.0000   1.0000   1.0000   1.0000   1.0000   1.0000   1.0000
     1.0000   1.0000   1.0000   1.0000   1.0000   1.0000   1.0000   1.0000
     1.0000   1.0000   1.0000   1.0000   1.0000   1.0000   1.0000   1.0000
     1.0000   1.0000   1.0000   1.0000   1.0000   1.0000   1.0000   1.0000
     1.0000   1.0000   1.0000   1.0000   1.0000   1.0000   1.0000   1.0000
     1.0000   1.0000   1.0000   1.0000   1.0000   1.0000   1.0000   1.0000
     1.0000   1.0000   1.0000   1.0000   1.0000   1.0000   1.0000   1.0000
     1.0000   1.0000   1.0000   1.0000   1.0000   1.0000   1.0000   1.0000
     1.0000   1.0000   1.0000   1.0000   1.0000   1.0000   1.0000   1.0000
     1.0000   1.0000   1.0000   1.0000   1.0000   1.0000   1.0000   1.0000
     1.0000   1.0000   1.0000   1.0000   1.0000   1.0000   1.0000   1.0000
     1.0000   1.0000   1.0000   1.0000   1.0000   1.0000   1.0000   1.0000
     1.0000   1.0000   1.0000   1.0000   1.0000   1.0000   1.0000   1.0000
     1.0000   1.0000   1.0000   1.0000   1.0000   1.0000   1.0000   1.0000
     1.0000   1.0000   1.0000   1.0000   1.0000   1.0000   1.0000   1.0000
     1.0000   1.0000   1.0000   1.0000   1.0000   1.0000   1.0000   1.0000
     1.0000   1.0000   1.0000   1.0000   1.0000   1.0000   1.0000   1.0000
     1.0000   1.0000   1.0000   1.0000   1.0000   1.0000   1.0000   1.0000
     1.0000   1.0000   1.0000   1.0000   1.0000   1.0000   1.0000   1.0000
     1.0000   1.0000   1.0000   1.0000   1.0000   1.0000   1.0000   1.0000
     0.0000   0.0000   0.0000   0.0000   0.0000   0.0000   0.0000   0.0000
     0.0000   0.0000   0.0000   0.0000   0.0000   0.0000   0.0000   0.0000
     0.0000   0.0000   0.0000   0.0000   0.0000   0.0000   0.0000   0.0000
     0.0000   0.0000   0.0000   0.0000   0.0000   0.0000   0.0000   0.0000
     0.0000   0.0000   0.0000   0.0000   0.0000   0.0000   0.0000   0.0000
     0.0000   0.0000   0.0000   0.0000   0.0000   0.0000   0.0000   0.0000
     0.0000   0.0000   0.0000   0.0000   0.0000   0.0000   0.0000   0.0000

[...]

          k =-0.5000-0.5000-0.5000 (269968 PWs)   bands (ev):

[...]

 ------ SPIN DOWN ----------

[...]

          k =-0.2500 0.0000 0.2500 (269929 PWs)   bands (ev):

[...]

          k = 0.2500-0.2500-0.5000 (269988 PWs)   bands (ev):

   -87.4665 -50.8096 -50.8079 -50.8079  -7.3646  -7.3274  -7.1372  -7.1204
    -7.1045  -7.0476  -6.9398  -6.8873  -6.7979  -6.7795  -6.7465  -6.7257
    -6.6706  -6.6515  -6.6335  -6.6023  -6.5958  -6.5621  -6.5536  -6.5448
    -6.5316  -6.5166  -6.4709  -6.4626  -6.4548  -6.4315  -6.4167  -6.4070
    -6.3961  -6.3693  -6.3604  -0.9904  -0.9891  -0.9880  -0.9642  -0.9637
    -0.9623  -0.9499  -0.9216  -0.9194  -0.8983  -0.8802  -0.8754  -0.8613
    -0.8582  -0.8489  -0.7531  -0.7409  -0.7271  -0.7246  -0.7192  -0.7182
    -0.7072  -0.7066  -0.7040  -0.7003  -0.6971  -0.6931  -0.6908  -0.6860
    -0.6826  -0.6800  -0.6751  -0.6708  -0.6681  -0.6645  -0.6594  -0.6589
    -0.6548  -0.6534  -0.6505  -0.6472  -0.6383  -0.6368  -0.6336  -0.6318
    -0.6282  -0.6212  -0.6206  -0.6188  -0.6147  -0.6131  -0.6065  -0.6023
    -0.5921  -0.5885  -0.5847  -0.5794  -0.5778  -0.5759  -0.5707  -0.5688
    -0.5655  -0.5630  -0.5556  -0.5520  -0.5463  -0.5405  -0.5374  -0.5359
    -0.5268  -0.5247  -0.5230  -0.5192  -0.5142  -0.5075  -0.5074  -0.5019
    -0.4925  -0.4863  -0.4829  -0.4794  -0.4728  -0.4566  -0.4344  -0.4280
    -0.4153  -0.4110  -0.4049  -0.3990  -0.3923  -0.3883  -0.3804  -0.3729
    -0.3690  -0.3563  -0.3491  -0.3444  -0.3329  -0.3286  -0.3272  -0.3083
    -0.3046  -0.3020  -0.3007  -0.2984  -0.2921  -0.2907  -0.2867  -0.2853
    -0.2833  -0.2801  -0.2784  -0.2773  -0.2744  -0.2714  -0.2659  -0.2638
    -0.2619  -0.2582  -0.2562  -0.2546  -0.2513  -0.2499  -0.2465  -0.2438
    -0.2401  -0.2362  -0.2349  -0.2295  -0.2280  -0.2256  -0.2171  -0.2144
    -0.2054  -0.2001  -0.1983  -0.1886  -0.1864  -0.1783  -0.1747  -0.1710
    -0.1634  -0.1391  -0.1253  -0.1119  -0.1061  -0.0794  -0.0670  -0.0564
    -0.0478  -0.0437  -0.0179  -0.0105   0.0073   0.0218   0.5996   0.6454
     0.7482   0.8438   0.8748   0.8976   0.9337   0.9429   0.9654   0.9894
     1.0205   1.0542   1.0637   1.0682   1.0927   1.1045   1.1763   1.3630
     1.4294   1.5331   1.5839   1.6236   1.6717   1.7103   1.7891   2.0027
     2.4310   2.5788   2.6069   2.6154   2.6346   2.6562   2.6865   2.7467
     2.7741   2.8096   2.8360   2.8594   2.9269   2.9496   3.0002   3.0477
     3.2605   3.2855   3.3610   3.3939   3.4147   3.4509   3.4658   3.5031
     3.5263   3.5450   3.5667   3.5847   3.6094   3.6361   3.6540   3.6752
     3.7039   3.7221   3.7497   3.7562   3.7647   3.7677   3.7818   3.8114
     3.8239   3.9698   3.9900   4.0233   4.0365   4.0604   4.1155   4.1623
     4.2139   4.2332   4.2484   4.2828   4.3473   4.3773   4.4383   4.4445
     4.4875   4.5661   4.7737   4.8287   4.8428   4.8975   4.9100   4.9415
     5.0295   5.0509   5.0946   5.6846   5.6969   5.8121   6.6092   6.9074
     6.9314   8.0074   8.0984   8.7887   8.9482   9.0835   9.1394   9.1791
     9.3847   9.4158   9.4838   9.5525   9.5639   9.6373   9.6725   9.6847
     9.7053   9.7802   9.7930   9.8455   9.8533   9.8848   9.9150   9.9936
    10.0189  10.0318  10.0836  10.1123  10.1291  10.2081  10.2354  10.3270
    10.4066  10.4212  10.4561  10.5993  10.7103  10.7940  10.8204  10.8404
    10.8951  10.9951  11.0474  11.1672  11.2732  11.3369  11.3622  11.4342
    11.4858  11.5319  11.5431  11.5565  11.6256  11.6409  11.6488  11.6716

     occupation numbers
     1.0000   1.0000   1.0000   1.0000   1.0000   1.0000   1.0000   1.0000
     1.0000   1.0000   1.0000   1.0000   1.0000   1.0000   1.0000   1.0000
     1.0000   1.0000   1.0000   1.0000   1.0000   1.0000   1.0000   1.0000
     1.0000   1.0000   1.0000   1.0000   1.0000   1.0000   1.0000   1.0000
     1.0000   1.0000   1.0000   1.0000   1.0000   1.0000   1.0000   1.0000
     1.0000   1.0000   1.0000   1.0000   1.0000   1.0000   1.0000   1.0000
     1.0000   1.0000   1.0000   1.0000   1.0000   1.0000   1.0000   1.0000
     1.0000   1.0000   1.0000   1.0000   1.0000   1.0000   1.0000   1.0000
     1.0000   1.0000   1.0000   1.0000   1.0000   1.0000   1.0000   1.0000
     1.0000   1.0000   1.0000   1.0000   1.0000   1.0000   1.0000   1.0000
     1.0000   1.0000   1.0000   1.0000   1.0000   1.0000   1.0000   1.0000
     1.0000   1.0000   1.0000   1.0000   1.0000   1.0000   1.0000   1.0000
     1.0000   1.0000   1.0000   1.0000   1.0000   1.0000   1.0000   1.0000
     1.0000   1.0000   1.0000   1.0000   1.0000   1.0000   1.0000   1.0000
     1.0000   1.0000   1.0000   1.0000   1.0000   1.0000   1.0000   1.0000
     1.0000   1.0000   1.0000   1.0000   1.0000   1.0000   1.0000   1.0000
     1.0000   1.0000   1.0000   1.0000   1.0000   1.0000   1.0000   1.0000
     1.0000   1.0000   1.0000   1.0000   1.0000   1.0000   1.0000   1.0000
     1.0000   1.0000   1.0000   1.0000   1.0000   1.0000   1.0000   1.0000
     1.0000   1.0000   1.0000   1.0000   1.0000   1.0000   1.0000   1.0000
     1.0000   1.0000   1.0000   1.0000   1.0000   1.0000   1.0000   1.0000
     1.0000   1.0000   1.0000   1.0000   1.0000   1.0000   1.0000   1.0000
     1.0000   1.0000   1.0000   1.0000   1.0000   1.0000   1.0000   1.0000
     1.0000   1.0000   1.0000   1.0000   1.0000   1.0000   1.0000   1.0000
     1.0000   1.0000   1.0000   1.0000   1.0000   1.0000   1.0000   1.0000
     1.0000   1.0000   1.0000   1.0000   1.0000   1.0000   1.0000   1.0000
     1.0000   1.0000   1.0000   1.0000   1.0000   1.0000   1.0000   1.0000
     1.0000   1.0000   1.0000   1.0000   1.0000   1.0000   1.0000   1.0000
     1.0000   1.0000   1.0000   1.0000   1.0000   1.0000   1.0000   1.0000
     1.0000   1.0000   1.0000   1.0000   1.0000   1.0000   1.0000   1.0000
     1.0000   1.0000   1.0000   1.0000   1.0000   1.0000   1.0000   1.0000
     1.0000   1.0000   1.0000   1.0000   1.0000   1.0000   1.0000   1.0000
     1.0000   1.0000   1.0000   1.0000   1.0000   1.0000   1.0000   1.0000
     1.0000   1.0000   1.0000   1.0000   1.0000   1.0000   1.0000   1.0000
     1.0000   1.0000   1.0000   1.0000   1.0000   1.0000   1.0000   1.0000
     1.0000   1.0000   1.0000   1.0000   1.0000   1.0000   0.0000   0.0000
     0.0000   0.0000   0.0000   0.0000   0.0000   0.0000   0.0000   0.0000
     0.0000   0.0000   0.0000   0.0000   0.0000   0.0000   0.0000   0.0000
     0.0000   0.0000   0.0000   0.0000   0.0000   0.0000   0.0000   0.0000
     0.0000   0.0000   0.0000   0.0000   0.0000   0.0000   0.0000   0.0000
     0.0000   0.0000   0.0000   0.0000   0.0000   0.0000   0.0000   0.0000
     0.0000   0.0000   0.0000   0.0000   0.0000   0.0000   0.0000   0.0000
     0.0000   0.0000   0.0000   0.0000   0.0000   0.0000   0.0000   0.0000

     the Fermi energy is     6.0319 ev

!    total energy              =   -9991.16344490 Ry
     total all-electron energy =   -138896.784235 Ry
     estimated scf accuracy    <          8.5E-09 Ry
     smearing contrib. (-TS)   =      -0.00000000 Ry
     internal energy E=F+TS    =   -9991.16344490 Ry

     The total energy is F=E-TS. E is the sum of the following terms:
     one-electron contribution =   -2948.76960500 Ry
     hartree contribution      =    2041.20126764 Ry
     xc contribution           =   -1652.00226750 Ry
     ewald contribution        =   -2955.93282873 Ry
     one-center paw contrib.   =   -4475.66001130 Ry
      -> PAW hartree energy AE =     123.15606436 Ry
      -> PAW hartree energy PS =    -122.51385701 Ry
      -> PAW xc energy AE      =    -143.19973914 Ry
      -> PAW xc energy PS      =      47.13853773 Ry
      -> total E_H with PAW    =    2041.84347498 Ry
      -> total E_XC with PAW   =   -1748.06346891 Ry

     total magnetization       =     2.00 Bohr mag/cell
     absolute magnetization    =     3.24 Bohr mag/cell

     convergence has been achieved in  19 iterations

     Writing all to output data dir ./out/Co_vac_qp1_unrlxd.save/

     General routines

     Parallel routines

     PAW routines

   This run was terminated on:   3:17:19   7Jul2024

   JOB DONE.