     Program PWSCF v.7.2 starts on 10Jul2024 at  9: 5:12

     Reading input from 1.Fe_vac_in_ZnS.relax.qn2.in.part2

     Current dimensions of program PWSCF are:
     Max number of different atomic species (ntypx) = 10
     Max number of k-points (npk) =  40000
     Max angular momentum in pseudopotentials (lmaxx) =  4
     file S.pbe-n-kjpaw_psl.1.0.0.UPF: wavefunction(s)  3S 3P renormalized
     file Zn.pbe-dnl-kjpaw_psl.1.0.0.UPF: wavefunction(s)  4S 3D renormalized
     file Fe.pbe-spn-kjpaw_psl.1.0.0.UPF: wavefunction(s)  3P 3D renormalized

     K-points division:     npool     =       7
     R & G space division:  proc/nbgrp/npool/nimage =     112
     Subspace diagonalization in iterative solution of the eigenvalue problem:
     one sub-group per band group will be used

     Using Slab Decomposition

     bravais-lattice index     =            1
     lattice parameter (alat)  =      20.5686  a.u.
     unit-cell volume          =    8701.8437 (a.u.)^3
     number of atoms/cell      =           63
     number of atomic types    =            3
     number of electrons       =       576.00
     number of Kohn-Sham states=          346
     kinetic-energy cutoff     =     150.0000  Ry
     charge density cutoff     =     600.0000  Ry
     scf convergence threshold =      1.0E-08
     mixing beta               =       0.7000
     number of iterations used =            8  plain     mixing
     energy convergence thresh.=      1.0E-05
     force convergence thresh. =      1.0E-04
     Exchange-correlation= SLA  PW   PBX  PBC
                           (   1   4   3   4   0   0   0)
     nstep                     =           50

     celldm(1)=  20.568554  celldm(2)=   0.000000  celldm(3)=   0.000000
     celldm(4)=   0.000000  celldm(5)=   0.000000  celldm(6)=   0.000000

     crystal axes: (cart. coord. in units of alat)
               a(1) = (   1.000000   0.000000   0.000000 )
               a(2) = (   0.000000   1.000000   0.000000 )
               a(3) = (   0.000000   0.000000   1.000000 )

     reciprocal axes: (cart. coord. in units 2 pi/alat)
               b(1) = (  1.000000  0.000000  0.000000 )
               b(2) = (  0.000000  1.000000  0.000000 )
               b(3) = (  0.000000  0.000000  1.000000 )

     PseudoPot. # 1 for S  read from file:
     /arf/home/amuhaymin/pseudo/S.pbe-n-kjpaw_psl.1.0.0.UPF
     MD5 check sum: fb45dfebcf3e72a4e1bd4a866ec2e262
     Pseudo is Projector augmented-wave + core cor, Zval =  6.0
     Generated using &quot;atomic&quot; code by A. Dal Corso  v.6.3
     Shape of augmentation charge: PSQ
     Using radial grid of 1151 points,  6 beta functions with:
                l(1) =   0
                l(2) =   0
                l(3) =   1
                l(4) =   1
                l(5) =   2
                l(6) =   2
     Q(r) pseudized with 0 coefficients

     PseudoPot. # 2 for Zn read from file:
     /arf/home/amuhaymin/pseudo/Zn.pbe-dnl-kjpaw_psl.1.0.0.UPF
     MD5 check sum: c608214d9520ac179f507641260889e3
     Pseudo is Projector augmented-wave + core cor, Zval = 12.0
     Generated using &quot;atomic&quot; code by A. Dal Corso  v.6.2.2
     Shape of augmentation charge: PSQ
     Using radial grid of 1201 points,  6 beta functions with:
                l(1) =   0
                l(2) =   0
                l(3) =   1
                l(4) =   1
                l(5) =   2
                l(6) =   2
     Q(r) pseudized with 0 coefficients

     PseudoPot. # 3 for Fe read from file:
     /arf/home/amuhaymin/pseudo/Fe.pbe-spn-kjpaw_psl.1.0.0.UPF
     MD5 check sum: fc81f059e5c5069939230b1155715ae8
     Pseudo is Projector augmented-wave + core cor, Zval = 16.0
     Generated using &quot;atomic&quot; code by A. Dal Corso  v.6.3
     Shape of augmentation charge: PSQ
     Using radial grid of 1191 points,  6 beta functions with:
                l(1) =   0
                l(2) =   0
                l(3) =   1
                l(4) =   1
                l(5) =   2
                l(6) =   2
     Q(r) pseudized with 0 coefficients

     atomic species   valence    mass     pseudopotential
        S              6.00    32.06500     S ( 1.00)
        Zn            12.00    65.38000     Zn( 1.00)
        Fe            16.00    63.54600     Fe( 1.00)

     Starting magnetic structure
     atomic species   magnetization
        S            0.000
        Zn           0.000
        Fe           0.125

      6 Sym. Ops. (no inversion) found

                                    s                        frac. trans.

      isym =  1     identity

 cryst.   s( 1) = (     1          0          0      )
                  (     0          1          0      )
                  (     0          0          1      )

 cart.    s( 1) = (  1.0000000  0.0000000  0.0000000 )
                  (  0.0000000  1.0000000  0.0000000 )
                  (  0.0000000  0.0000000  1.0000000 )

      isym =  2     120 deg rotation - cart. axis [-1,-1,-1]

[...]

      isym =  3     120 deg rotation - cart. axis [1,1,1]

[...]

      isym =  4     inv. 180 deg rotation - cart. axis [1,-1,0]

[...]

      isym =  6     inv. 180 deg rotation - cart. axis [0,1,-1]

 cryst.   s( 6) = (     1          0          0      )
                  (     0          0          1      )
                  (     0          1          0      )

 cart.    s( 6) = (  1.0000000  0.0000000  0.0000000 )
                  (  0.0000000  0.0000000  1.0000000 )
                  (  0.0000000  1.0000000  0.0000000 )

     point group C_3v (3m)
     there are  3 classes
     the character table:

       E     2C3   3s_v
A_1    1.00  1.00  1.00
A_2    1.00  1.00 -1.00
E      2.00 -1.00  0.00

     the symmetry operations in each class and the name of the first element:

     E        1
          identity
     2C3      2    3
          120 deg rotation - cart. axis [-1,-1,-1]
     3s_v     4    5    6
          inv. 180 deg rotation - cart. axis [1,-1,0]

   Cartesian axes

     site n.     atom                  positions (alat units)
         1           Zn  tau(   1) = (  -0.0005673  -0.0005673  -0.0005673  )
         2           Zn  tau(   2) = (   0.0020165   0.2521016   0.2521016  )
         3           Zn  tau(   3) = (   0.2521016   0.0020165   0.2521016  )
         4           Zn  tau(   4) = (   0.2521016   0.2521016   0.0020165  )
         5           S   tau(   5) = (   0.1286382   0.3772524   0.3772524  )
         6           S   tau(   6) = (   0.1255193   0.1255193   0.1255193  )
         7           S   tau(   7) = (   0.3772524   0.3772524   0.1286382  )
         8           S   tau(   8) = (   0.3772524   0.1286382   0.3772524  )
         9           Zn  tau(   9) = (  -0.0047944  -0.0047944   0.5037367  )
        10           Zn  tau(  10) = (  -0.0015993   0.2513280   0.7490664  )
        11           Zn  tau(  11) = (   0.2513280  -0.0015993   0.7490664  )
        12           Zn  tau(  12) = (   0.2589171   0.2589171   0.5060247  )
        13           S   tau(  13) = (   0.1253243   0.3753013   0.8756183  )
        14           S   tau(  14) = (   0.1264983   0.1264983   0.6241792  )
        15           S   tau(  15) = (   0.3888022   0.3888022   0.6249445  )
        16           S   tau(  16) = (   0.3753013   0.1253243   0.8756183  )
        17           Zn  tau(  17) = (  -0.0047944   0.5037367  -0.0047944  )
        18           Zn  tau(  18) = (  -0.0015993   0.7490664   0.2513280  )
        19           Zn  tau(  19) = (   0.2589171   0.5060247   0.2589171  )
        20           Zn  tau(  20) = (   0.2513280   0.7490664  -0.0015993  )
        21           S   tau(  21) = (   0.1253243   0.8756183   0.3753013  )
        22           S   tau(  22) = (   0.1264983   0.6241792   0.1264983  )
        23           S   tau(  23) = (   0.3753013   0.8756183   0.1253243  )
        24           S   tau(  24) = (   0.3888022   0.6249445   0.3888022  )
        25           Zn  tau(  25) = (  -0.0015527   0.5008831   0.5008831  )
        26           Zn  tau(  26) = (  -0.0074488   0.7481720   0.7481720  )
        27           Zn  tau(  27) = (   0.2534171   0.5001251   0.7505934  )
        28           Zn  tau(  28) = (   0.2534171   0.7505934   0.5001251  )
        29           S   tau(  29) = (   0.1232550   0.8736044   0.8736044  )
        30           S   tau(  30) = (   0.1257144   0.6256133   0.6256133  )
        31           S   tau(  31) = (   0.3775666   0.8736067   0.6264382  )
        32           S   tau(  32) = (   0.3775666   0.6264382   0.8736067  )
        33           Zn  tau(  33) = (   0.5037367  -0.0047944  -0.0047944  )
        34           Zn  tau(  34) = (   0.5060247   0.2589171   0.2589171  )
        35           Zn  tau(  35) = (   0.7490664  -0.0015993   0.2513280  )
        36           Zn  tau(  36) = (   0.7490664   0.2513280  -0.0015993  )
        37           S   tau(  37) = (   0.6249445   0.3888022   0.3888022  )
        38           S   tau(  38) = (   0.6241792   0.1264983   0.1264983  )
        39           S   tau(  39) = (   0.8756183   0.3753013   0.1253243  )
        40           S   tau(  40) = (   0.8756183   0.1253243   0.3753013  )
        41           Zn  tau(  41) = (   0.5008831  -0.0015527   0.5008831  )
        42           Zn  tau(  42) = (   0.5001251   0.2534171   0.7505934  )
        43           Zn  tau(  43) = (   0.7481720  -0.0074488   0.7481720  )
        44           Zn  tau(  44) = (   0.7505934   0.2534171   0.5001251  )
        45           S   tau(  45) = (   0.6264382   0.3775666   0.8736067  )
        46           S   tau(  46) = (   0.6256133   0.1257144   0.6256133  )
        47           S   tau(  47) = (   0.8736067   0.3775666   0.6264382  )
        48           S   tau(  48) = (   0.8736044   0.1232550   0.8736044  )
        49           Zn  tau(  49) = (   0.5008831   0.5008831  -0.0015527  )
        50           Zn  tau(  50) = (   0.5001251   0.7505934   0.2534171  )
        51           Zn  tau(  51) = (   0.7505934   0.5001251   0.2534171  )
        52           Zn  tau(  52) = (   0.7481720   0.7481720  -0.0074488  )
        53           S   tau(  53) = (   0.6264382   0.8736067   0.3775666  )
        54           S   tau(  54) = (   0.6256133   0.6256133   0.1257144  )
        55           S   tau(  55) = (   0.8736044   0.8736044   0.1232550  )
        56           S   tau(  56) = (   0.8736067   0.6264382   0.3775666  )
        57           Fe  tau(  57) = (   0.5385625   0.5385625   0.5385625  )
        58           Zn  tau(  58) = (   0.5130443   0.7057504   0.7057504  )
        59           Zn  tau(  59) = (   0.7057504   0.5130443   0.7057504  )
        60           Zn  tau(  60) = (   0.7057504   0.7057504   0.5130443  )
        61           S   tau(  61) = (   0.6194642   0.8651483   0.8651483  )
        62           S   tau(  62) = (   0.8651483   0.8651483   0.6194642  )
        63           S   tau(  63) = (   0.8651483   0.6194642   0.8651483  )

   Crystallographic axes

     site n.     atom                  positions (cryst. coord.)
         1           Zn  tau(   1) = ( -0.0005673 -0.0005673 -0.0005673  )
         2           Zn  tau(   2) = (  0.0020165  0.2521016  0.2521016  )
[...]
     atom    8 type  1   force =     0.00000000    0.00000000    0.00000000
     atom    9 type  2   force =     0.00000000    0.00000000    0.00000000
     atom   10 type  2   force =     0.00000000    0.00000000    0.00000000
     atom   11 type  2   force =     0.00000000    0.00000000    0.00000000
     atom   12 type  2   force =     0.00000000    0.00000000    0.00000000
     atom   13 type  1   force =     0.00000000    0.00000000    0.00000000
     atom   14 type  1   force =     0.00000000    0.00000000    0.00000000
     atom   15 type  1   force =     0.00000000    0.00000000    0.00000000
     atom   16 type  1   force =     0.00000000    0.00000000    0.00000000
     atom   17 type  2   force =     0.00000000    0.00000000    0.00000000
     atom   18 type  2   force =     0.00000000    0.00000000    0.00000000
     atom   19 type  2   force =     0.00000000    0.00000000    0.00000000
     atom   20 type  2   force =     0.00000000    0.00000000    0.00000000
     atom   21 type  1   force =     0.00000000    0.00000000    0.00000000
     atom   22 type  1   force =     0.00000000    0.00000000    0.00000000
     atom   23 type  1   force =     0.00000000    0.00000000    0.00000000
     atom   24 type  1   force =     0.00000000    0.00000000    0.00000000
     atom   25 type  2   force =     0.00000000    0.00000000    0.00000000
     atom   26 type  2   force =     0.00000000    0.00000000    0.00000000
     atom   27 type  2   force =     0.00000000    0.00000000    0.00000000
     atom   28 type  2   force =     0.00000000    0.00000000    0.00000000
     atom   29 type  1   force =     0.00000000    0.00000000    0.00000000
     atom   30 type  1   force =     0.00000000    0.00000000    0.00000000
     atom   31 type  1   force =     0.00000000    0.00000000    0.00000000
     atom   32 type  1   force =     0.00000000    0.00000000    0.00000000
     atom   33 type  2   force =     0.00000000    0.00000000    0.00000000
     atom   34 type  2   force =     0.00000000    0.00000000    0.00000000
     atom   35 type  2   force =     0.00000000    0.00000000    0.00000000
     atom   36 type  2   force =     0.00000000    0.00000000    0.00000000
     atom   37 type  1   force =     0.00000000    0.00000000    0.00000000
     atom   38 type  1   force =     0.00000000    0.00000000    0.00000000
     atom   39 type  1   force =     0.00000000    0.00000000    0.00000000
     atom   40 type  1   force =     0.00000000    0.00000000    0.00000000
     atom   41 type  2   force =     0.00000000    0.00000000    0.00000000
     atom   42 type  2   force =     0.00000000    0.00000000    0.00000000
     atom   43 type  2   force =     0.00000000    0.00000000    0.00000000
     atom   44 type  2   force =     0.00000000    0.00000000    0.00000000
     atom   45 type  1   force =     0.00000000    0.00000000    0.00000000
     atom   46 type  1   force =     0.00000000    0.00000000    0.00000000
     atom   47 type  1   force =     0.00000000    0.00000000    0.00000000
     atom   48 type  1   force =     0.00000000    0.00000000    0.00000000
     atom   49 type  2   force =     0.00000000    0.00000000    0.00000000
     atom   50 type  2   force =     0.00000000    0.00000000    0.00000000
     atom   51 type  2   force =     0.00000000    0.00000000    0.00000000
     atom   52 type  2   force =     0.00000000    0.00000000    0.00000000
     atom   53 type  1   force =     0.00000000    0.00000000    0.00000000
     atom   54 type  1   force =     0.00000000    0.00000000    0.00000000
     atom   55 type  1   force =     0.00000000    0.00000000    0.00000000
     atom   56 type  1   force =     0.00000000    0.00000000    0.00000000
     atom   57 type  3   force =     0.00000000    0.00000000    0.00000000
     atom   58 type  2   force =     0.00000000    0.00000000    0.00000000
     atom   59 type  2   force =     0.00000000    0.00000000    0.00000000
     atom   60 type  2   force =     0.00000000    0.00000000    0.00000000
     atom   61 type  1   force =     0.00000000    0.00000000    0.00000000
     atom   62 type  1   force =     0.00000000    0.00000000    0.00000000
     atom   63 type  1   force =     0.00000000    0.00000000    0.00000000
     The SCF correction term to forces
     atom    1 type  2   force =     0.00000057    0.00000057    0.00000057
     atom    2 type  2   force =     0.00000242    0.00000016    0.00000016
     atom    3 type  2   force =     0.00000016    0.00000242    0.00000016
     atom    4 type  2   force =     0.00000016    0.00000016    0.00000242
     atom    5 type  1   force =    -0.00000054   -0.00000117   -0.00000117
     atom    6 type  1   force =     0.00000083    0.00000083    0.00000083
     atom    7 type  1   force =    -0.00000117   -0.00000117   -0.00000054
     atom    8 type  1   force =    -0.00000117   -0.00000054   -0.00000117
     atom    9 type  2   force =     0.00000089    0.00000089   -0.00000066
     atom   10 type  2   force =    -0.00000075   -0.00000027    0.00000014
     atom   11 type  2   force =    -0.00000027   -0.00000075    0.00000014
     atom   12 type  2   force =    -0.00000117   -0.00000117   -0.00000115
     atom   13 type  1   force =     0.00000036   -0.00000005    0.00000079
     atom   14 type  1   force =    -0.00000020   -0.00000020   -0.00000043
     atom   15 type  1   force =    -0.00000044   -0.00000044    0.00000066
     atom   16 type  1   force =    -0.00000005    0.00000036    0.00000079
     atom   17 type  2   force =     0.00000089   -0.00000066    0.00000089
     atom   18 type  2   force =    -0.00000075    0.00000014   -0.00000027
     atom   19 type  2   force =    -0.00000117   -0.00000115   -0.00000117
     atom   20 type  2   force =    -0.00000027    0.00000014   -0.00000075
     atom   21 type  1   force =     0.00000036    0.00000079   -0.00000005
     atom   22 type  1   force =    -0.00000020   -0.00000043   -0.00000020
     atom   23 type  1   force =    -0.00000005    0.00000079    0.00000036
     atom   24 type  1   force =    -0.00000044    0.00000066   -0.00000044
     atom   25 type  2   force =    -0.00000171   -0.00000010   -0.00000010
     atom   26 type  2   force =    -0.00000072   -0.00000037   -0.00000037
     atom   27 type  2   force =     0.00000028   -0.00000021    0.00000102
     atom   28 type  2   force =     0.00000028    0.00000102   -0.00000021
     atom   29 type  1   force =     0.00000014   -0.00000006   -0.00000006
     atom   30 type  1   force =    -0.00000016    0.00000042    0.00000042
     atom   31 type  1   force =     0.00000003   -0.00000001    0.00000007
     atom   32 type  1   force =     0.00000003    0.00000007   -0.00000001
     atom   33 type  2   force =    -0.00000066    0.00000089    0.00000089
     atom   34 type  2   force =    -0.00000115   -0.00000117   -0.00000117
     atom   35 type  2   force =     0.00000014   -0.00000075   -0.00000027
     atom   36 type  2   force =     0.00000014   -0.00000027   -0.00000075
     atom   37 type  1   force =     0.00000066   -0.00000044   -0.00000044
     atom   38 type  1   force =    -0.00000043   -0.00000020   -0.00000020
     atom   39 type  1   force =     0.00000079   -0.00000005    0.00000036
     atom   40 type  1   force =     0.00000079    0.00000036   -0.00000005
     atom   41 type  2   force =    -0.00000010   -0.00000171   -0.00000010
     atom   42 type  2   force =    -0.00000021    0.00000028    0.00000102
     atom   43 type  2   force =    -0.00000037   -0.00000072   -0.00000037
     atom   44 type  2   force =     0.00000102    0.00000028   -0.00000021
     atom   45 type  1   force =     0.00000007    0.00000003   -0.00000001
     atom   46 type  1   force =     0.00000042   -0.00000016    0.00000042
     atom   47 type  1   force =    -0.00000001    0.00000003    0.00000007
     atom   48 type  1   force =    -0.00000006    0.00000014   -0.00000006
     atom   49 type  2   force =    -0.00000010   -0.00000010   -0.00000171
     atom   50 type  2   force =    -0.00000021    0.00000102    0.00000028
     atom   51 type  2   force =     0.00000102   -0.00000021    0.00000028
     atom   52 type  2   force =    -0.00000037   -0.00000037   -0.00000072
     atom   53 type  1   force =     0.00000007   -0.00000001    0.00000003
     atom   54 type  1   force =     0.00000042    0.00000042   -0.00000016
     atom   55 type  1   force =    -0.00000006   -0.00000006    0.00000014
     atom   56 type  1   force =    -0.00000001    0.00000007    0.00000003
     atom   57 type  3   force =     0.00000049    0.00000049    0.00000049
     atom   58 type  2   force =     0.00000090    0.00000187    0.00000187
     atom   59 type  2   force =     0.00000187    0.00000090    0.00000187
     atom   60 type  2   force =     0.00000187    0.00000187    0.00000090
     atom   61 type  1   force =    -0.00000002   -0.00000033   -0.00000033
     atom   62 type  1   force =    -0.00000033   -0.00000033   -0.00000002
     atom   63 type  1   force =    -0.00000033   -0.00000002   -0.00000033

     Total force =     0.000448     Total SCF correction =     0.000010

     Computing stress (Cartesian axis) and pressure

     negative rho (up, down):  0.000E+00 6.838E-05
          total   stress  (Ry/bohr**3)                   (kbar)     P=       12.57
   0.00008543  -0.00002253  -0.00002253           12.57       -3.31       -3.31
  -0.00002253   0.00008543  -0.00002253           -3.31       12.57       -3.31
  -0.00002253  -0.00002253   0.00008543           -3.31       -3.31       12.57

     kinetic stress (kbar)  12111.15     -5.15     -5.15
                               -5.15  12111.15     -5.15
                               -5.15     -5.15  12111.15

     local   stress (kbar)   -658.73    177.06    177.06
                              177.06   -658.73    177.06
                              177.06    177.06   -658.73

     nonloc. stress (kbar)  -1149.04     -0.62     -0.62
                               -0.62  -1149.04     -0.62
                               -0.62     -0.62  -1149.04

     hartree stress (kbar)  11436.27    -72.78    -72.78
                              -72.78  11436.27    -72.78
                              -72.78    -72.78  11436.27

     exc-cor stress (kbar)   8299.70     -0.19     -0.19
                               -0.19   8299.70     -0.19
                               -0.19     -0.19   8299.70

     corecor stress (kbar) -13527.58      0.09      0.09
                                0.09 -13527.58      0.09
                                0.09      0.09 -13527.58

     ewald   stress (kbar) -16499.21   -101.73   -101.73
                             -101.73 -16499.21   -101.73
                             -101.73   -101.73 -16499.21

     hubbard stress (kbar)      0.00      0.00      0.00
                                0.00      0.00      0.00
                                0.00      0.00      0.00

     DFT-D   stress (kbar)      0.00      0.00      0.00
                                0.00      0.00      0.00
                                0.00      0.00      0.00

     XDM     stress (kbar)      0.00      0.00      0.00
                                0.00      0.00      0.00
                                0.00      0.00      0.00

     dft-nl  stress (kbar)      0.00      0.00      0.00
                                0.00      0.00      0.00
                                0.00      0.00      0.00

     TS-vdW  stress (kbar)      0.00      0.00      0.00
                                0.00      0.00      0.00
                                0.00      0.00      0.00

     MDB     stress (kbar)      0.00      0.00      0.00
                                0.00      0.00      0.00
                                0.00      0.00      0.00

     3D-RISM stress (kbar)      0.00      0.00      0.00
                                0.00      0.00      0.00
                                0.00      0.00      0.00

     Energy error            =      4.3E-07 Ry
     Gradient error          =      8.2E-05 Ry/Bohr

     bfgs converged in  17 scf cycles and  16 bfgs steps
     (criteria: energy <  1.0E-05 Ry, force <  1.0E-04 Ry/Bohr)

     End of BFGS Geometry Optimization

     Final energy             =   -9942.2413091087 Ry

     File ./out/Fe_qn2.bfgs deleted, as requested
Begin final coordinates

ATOMIC_POSITIONS (crystal)
Zn           -0.0005358550       -0.0005358550       -0.0005358550
Zn            0.0019983438        0.2521645878        0.2521645878
Zn            0.2521645878        0.0019983438        0.2521645878
Zn            0.2521645878        0.2521645878        0.0019983438
S             0.1285990709        0.3773339217        0.3773339217
S             0.1255893552        0.1255893552        0.1255893552
S             0.3773339217        0.3773339217        0.1285990709
S             0.3773339217        0.1285990709        0.3773339217
Zn           -0.0049521366       -0.0049521366        0.5042138825
Zn           -0.0016603029        0.2515656282        0.7492973132
Zn            0.2515656282       -0.0016603029        0.7492973132
Zn            0.2586408007        0.2586408007        0.5061556092
S             0.1253071571        0.3755154634        0.8757880780
S             0.1264100427        0.1264100427        0.6245395703
S             0.3885519868        0.3885519868        0.6248906744
S             0.3755154634        0.1253071571        0.8757880780
Zn           -0.0049521366        0.5042138825       -0.0049521366
Zn           -0.0016603029        0.7492973132        0.2515656282
Zn            0.2586408007        0.5061556092        0.2586408007
Zn            0.2515656282        0.7492973132       -0.0016603029
S             0.1253071571        0.8757880780        0.3755154634
S             0.1264100427        0.6245395703        0.1264100427
S             0.3755154634        0.8757880780        0.1253071571
S             0.3885519868        0.6248906744        0.3885519868
Zn           -0.0015167501        0.5010867105        0.5010867105
Zn           -0.0074876913        0.7484558695        0.7484558695
Zn            0.2533940270        0.5001616220        0.7505539934
Zn            0.2533940270        0.7505539934        0.5001616220
S             0.1233796147        0.8737285885        0.8737285885
S             0.1257101407        0.6257877549        0.6257877549
S             0.3776568270        0.8736147952        0.6264090680
S             0.3776568270        0.6264090680        0.8736147952
Zn            0.5042138825       -0.0049521366       -0.0049521366
Zn            0.5061556092        0.2586408007        0.2586408007
Zn            0.7492973132       -0.0016603029        0.2515656282
Zn            0.7492973132        0.2515656282       -0.0016603029
S             0.6248906744        0.3885519868        0.3885519868
S             0.6245395703        0.1264100427        0.1264100427
S             0.8757880780        0.3755154634        0.1253071571
S             0.8757880780        0.1253071571        0.3755154634
Zn            0.5010867105       -0.0015167501        0.5010867105
Zn            0.5001616220        0.2533940270        0.7505539934
Zn            0.7484558695       -0.0074876913        0.7484558695
Zn            0.7505539934        0.2533940270        0.5001616220
S             0.6264090680        0.3776568270        0.8736147952
S             0.6257877549        0.1257101407        0.6257877549
S             0.8736147952        0.3776568270        0.6264090680
S             0.8737285885        0.1233796147        0.8737285885
Zn            0.5010867105        0.5010867105       -0.0015167501
Zn            0.5001616220        0.7505539934        0.2533940270
Zn            0.7505539934        0.5001616220        0.2533940270
Zn            0.7484558695        0.7484558695       -0.0074876913
S             0.6264090680        0.8736147952        0.3776568270
S             0.6257877549        0.6257877549        0.1257101407
S             0.8737285885        0.8737285885        0.1233796147
S             0.8736147952        0.6264090680        0.3776568270
Fe            0.5377836455        0.5377836455        0.5377836455
Zn            0.5124342749        0.7049406116        0.7049406116
Zn            0.7049406116        0.5124342749        0.7049406116
Zn            0.7049406116        0.7049406116        0.5124342749
S             0.6195605715        0.8650903639        0.8650903639
S             0.8650903639        0.8650903639        0.6195605715
S             0.8650903639        0.6195605715        0.8650903639
End final coordinates

     General routines

     Parallel routines

     PAW routines

   This run was terminated on:  11:45:55  10Jul2024

   JOB DONE.