     Program PWSCF v.7.2 starts on 25Jul2024 at  8: 2: 3

     Reading input from 1.Cu_vac_in_ZnS.scf.qp1.unrlxd.U3.in

     Current dimensions of program PWSCF are:
     Max number of different atomic species (ntypx) = 10
     Max number of k-points (npk) =  40000
     Max angular momentum in pseudopotentials (lmaxx) =  4
     file S.pbe-n-kjpaw_psl.1.0.0.UPF: wavefunction(s)  3S 3P renormalized
     file Zn.pbe-dnl-kjpaw_psl.1.0.0.UPF: wavefunction(s)  4S 3D renormalized
     file Cu.pbe-spn-kjpaw_psl.1.0.0.UPF: wavefunction(s)  4S 3P 3D renormalized

     K-points division:     npool     =      13
     R & G space division:  proc/nbgrp/npool/nimage =     112
     Subspace diagonalization in iterative solution of the eigenvalue problem:
     one sub-group per band group will be used

     Using Slab Decomposition

     bravais-lattice index     =            1
     lattice parameter (alat)  =      20.5686  a.u.
     unit-cell volume          =    8701.8437 (a.u.)^3
     number of atoms/cell      =           63
     number of atomic types    =            3
     number of electrons       =       576.00
     number of Kohn-Sham states=          346
     kinetic-energy cutoff     =     150.0000  Ry
     charge density cutoff     =     600.0000  Ry
     scf convergence threshold =      1.0E-08
     mixing beta               =       0.7000
     number of iterations used =            8  plain     mixing
     Exchange-correlation= SLA  PW   PBX  PBC
                           (   1   4   3   4   0   0   0)
     Hubbard projectors: ortho-atomic
     Hubbard parameters of DFT+U (Dudarev formulation) in eV:
     U(Zn-3d) =  7.0000
     U(Cu-3d) =  3.0000

     Internal variables: lda_plus_u = T, lda_plus_u_kind = 0

     celldm(1)=  20.568554  celldm(2)=   0.000000  celldm(3)=   0.000000
     celldm(4)=   0.000000  celldm(5)=   0.000000  celldm(6)=   0.000000

     crystal axes: (cart. coord. in units of alat)
               a(1) = (   1.000000   0.000000   0.000000 )
               a(2) = (   0.000000   1.000000   0.000000 )
               a(3) = (   0.000000   0.000000   1.000000 )

     reciprocal axes: (cart. coord. in units 2 pi/alat)
               b(1) = (  1.000000  0.000000  0.000000 )
               b(2) = (  0.000000  1.000000  0.000000 )
               b(3) = (  0.000000  0.000000  1.000000 )

     PseudoPot. # 1 for S  read from file:
     /arf/home/amuhaymin/pseudo/S.pbe-n-kjpaw_psl.1.0.0.UPF
     MD5 check sum: fb45dfebcf3e72a4e1bd4a866ec2e262
     Pseudo is Projector augmented-wave + core cor, Zval =  6.0
     Generated using &quot;atomic&quot; code by A. Dal Corso  v.6.3
     Shape of augmentation charge: PSQ
     Using radial grid of 1151 points,  6 beta functions with:
                l(1) =   0
                l(2) =   0
                l(3) =   1
                l(4) =   1
                l(5) =   2
                l(6) =   2
     Q(r) pseudized with 0 coefficients

     PseudoPot. # 2 for Zn read from file:
     /arf/home/amuhaymin/pseudo/Zn.pbe-dnl-kjpaw_psl.1.0.0.UPF
     MD5 check sum: c608214d9520ac179f507641260889e3
     Pseudo is Projector augmented-wave + core cor, Zval = 12.0
     Generated using &quot;atomic&quot; code by A. Dal Corso  v.6.2.2
     Shape of augmentation charge: PSQ
     Using radial grid of 1201 points,  6 beta functions with:
                l(1) =   0
                l(2) =   0
                l(3) =   1
                l(4) =   1
                l(5) =   2
                l(6) =   2
     Q(r) pseudized with 0 coefficients

     PseudoPot. # 3 for Cu read from file:
     /arf/home/amuhaymin/pseudo/Cu.pbe-spn-kjpaw_psl.1.0.0.UPF
     MD5 check sum: e7cbaad2f97193e5fe23251a619a52b0
     Pseudo is Projector augmented-wave + core cor, Zval = 19.0
     Generated using &quot;atomic&quot; code by A. Dal Corso  v.6.3
     Shape of augmentation charge: PSQ
     Using radial grid of 1199 points,  6 beta functions with:
                l(1) =   0
                l(2) =   0
                l(3) =   1
                l(4) =   1
                l(5) =   2
                l(6) =   2
     Q(r) pseudized with 0 coefficients

     atomic species   valence    mass     pseudopotential
        S              6.00    32.06500     S ( 1.00)
        Zn            12.00    65.38000     Zn( 1.00)
        Cu            19.00    63.54600     Cu( 1.00)

     Starting magnetic structure
     atomic species   magnetization
        S            0.000
        Zn           0.000
        Cu           0.000

      6 Sym. Ops. (no inversion) found

                                    s                        frac. trans.

      isym =  1     identity

 cryst.   s( 1) = (     1          0          0      )
                  (     0          1          0      )
                  (     0          0          1      )

 cart.    s( 1) = (  1.0000000  0.0000000  0.0000000 )
                  (  0.0000000  1.0000000  0.0000000 )
                  (  0.0000000  0.0000000  1.0000000 )

      isym =  2     120 deg rotation - cart. axis [-1,-1,-1]

[...]

      isym =  3     120 deg rotation - cart. axis [1,1,1]

[...]

      isym =  4     inv. 180 deg rotation - cart. axis [1,-1,0]

[...]

      isym =  6     inv. 180 deg rotation - cart. axis [0,1,-1]

 cryst.   s( 6) = (     1          0          0      )
                  (     0          0          1      )
                  (     0          1          0      )

 cart.    s( 6) = (  1.0000000  0.0000000  0.0000000 )
                  (  0.0000000  0.0000000  1.0000000 )
                  (  0.0000000  1.0000000  0.0000000 )

     point group C_3v (3m)
     there are  3 classes
     the character table:

       E     2C3   3s_v
A_1    1.00  1.00  1.00
A_2    1.00  1.00 -1.00
E      2.00 -1.00  0.00

     the symmetry operations in each class and the name of the first element:

     E        1
          identity
     2C3      2    3
          120 deg rotation - cart. axis [-1,-1,-1]
     3s_v     4    5    6
          inv. 180 deg rotation - cart. axis [1,-1,0]

   Cartesian axes

     site n.     atom                  positions (alat units)
         1           Zn  tau(   1) = (   0.0000000   0.0000000   0.0000000  )
         2           Zn  tau(   2) = (   0.0000000   0.2500000   0.2500000  )
         3           Zn  tau(   3) = (   0.2500000   0.0000000   0.2500000  )
         4           Zn  tau(   4) = (   0.2500000   0.2500000   0.0000000  )
         5           S   tau(   5) = (   0.1250000   0.3750000   0.3750000  )
         6           S   tau(   6) = (   0.1250000   0.1250000   0.1250000  )
         7           S   tau(   7) = (   0.3750000   0.3750000   0.1250000  )
         8           S   tau(   8) = (   0.3750000   0.1250000   0.3750000  )
         9           Zn  tau(   9) = (   0.0000000   0.0000000   0.5000000  )
        10           Zn  tau(  10) = (   0.0000000   0.2500000   0.7500000  )
        11           Zn  tau(  11) = (   0.2500000   0.0000000   0.7500000  )
        12           Zn  tau(  12) = (   0.2500000   0.2500000   0.5000000  )
        13           S   tau(  13) = (   0.1250000   0.3750000   0.8750000  )
        14           S   tau(  14) = (   0.1250000   0.1250000   0.6250000  )
        15           S   tau(  15) = (   0.3750000   0.3750000   0.6250000  )
        16           S   tau(  16) = (   0.3750000   0.1250000   0.8750000  )
        17           Zn  tau(  17) = (   0.0000000   0.5000000   0.0000000  )
        18           Zn  tau(  18) = (   0.0000000   0.7500000   0.2500000  )
        19           Zn  tau(  19) = (   0.2500000   0.5000000   0.2500000  )
        20           Zn  tau(  20) = (   0.2500000   0.7500000   0.0000000  )
        21           S   tau(  21) = (   0.1250000   0.8750000   0.3750000  )
        22           S   tau(  22) = (   0.1250000   0.6250000   0.1250000  )
        23           S   tau(  23) = (   0.3750000   0.8750000   0.1250000  )
        24           S   tau(  24) = (   0.3750000   0.6250000   0.3750000  )
        25           Zn  tau(  25) = (   0.0000000   0.5000000   0.5000000  )
        26           Zn  tau(  26) = (   0.0000000   0.7500000   0.7500000  )
        27           Zn  tau(  27) = (   0.2500000   0.5000000   0.7500000  )
        28           Zn  tau(  28) = (   0.2500000   0.7500000   0.5000000  )
        29           S   tau(  29) = (   0.1250000   0.8750000   0.8750000  )
        30           S   tau(  30) = (   0.1250000   0.6250000   0.6250000  )
        31           S   tau(  31) = (   0.3750000   0.8750000   0.6250000  )
        32           S   tau(  32) = (   0.3750000   0.6250000   0.8750000  )
        33           Zn  tau(  33) = (   0.5000000   0.0000000   0.0000000  )
        34           Zn  tau(  34) = (   0.5000000   0.2500000   0.2500000  )
        35           Zn  tau(  35) = (   0.7500000   0.0000000   0.2500000  )
        36           Zn  tau(  36) = (   0.7500000   0.2500000   0.0000000  )
        37           S   tau(  37) = (   0.6250000   0.3750000   0.3750000  )
        38           S   tau(  38) = (   0.6250000   0.1250000   0.1250000  )
        39           S   tau(  39) = (   0.8750000   0.3750000   0.1250000  )
        40           S   tau(  40) = (   0.8750000   0.1250000   0.3750000  )
        41           Zn  tau(  41) = (   0.5000000   0.0000000   0.5000000  )
        42           Zn  tau(  42) = (   0.5000000   0.2500000   0.7500000  )
        43           Zn  tau(  43) = (   0.7500000   0.0000000   0.7500000  )
        44           Zn  tau(  44) = (   0.7500000   0.2500000   0.5000000  )
        45           S   tau(  45) = (   0.6250000   0.3750000   0.8750000  )
        46           S   tau(  46) = (   0.6250000   0.1250000   0.6250000  )
        47           S   tau(  47) = (   0.8750000   0.3750000   0.6250000  )
        48           S   tau(  48) = (   0.8750000   0.1250000   0.8750000  )
        49           Zn  tau(  49) = (   0.5000000   0.5000000   0.0000000  )
        50           Zn  tau(  50) = (   0.5000000   0.7500000   0.2500000  )
        51           Zn  tau(  51) = (   0.7500000   0.5000000   0.2500000  )
        52           Zn  tau(  52) = (   0.7500000   0.7500000   0.0000000  )
        53           S   tau(  53) = (   0.6250000   0.8750000   0.3750000  )
        54           S   tau(  54) = (   0.6250000   0.6250000   0.1250000  )
        55           S   tau(  55) = (   0.8750000   0.8750000   0.1250000  )
        56           S   tau(  56) = (   0.8750000   0.6250000   0.3750000  )
        57           Cu  tau(  57) = (   0.5000000   0.5000000   0.5000000  )
        58           Zn  tau(  58) = (   0.5000000   0.7500000   0.7500000  )
        59           Zn  tau(  59) = (   0.7500000   0.5000000   0.7500000  )
        60           Zn  tau(  60) = (   0.7500000   0.7500000   0.5000000  )
        61           S   tau(  61) = (   0.6250000   0.8750000   0.8750000  )
        62           S   tau(  62) = (   0.8750000   0.8750000   0.6250000  )
        63           S   tau(  63) = (   0.8750000   0.6250000   0.8750000  )

   Crystallographic axes

     site n.     atom                  positions (cryst. coord.)
         1           Zn  tau(   1) = (  0.0000000  0.0000000  0.0000000  )
[...]
     atom  29 (R=0.089)  charge=  3.9905  magn= -0.0000
     atom  30 (R=0.089)  charge=  3.9910  magn=  0.0000
     atom  31 (R=0.089)  charge=  3.9831  magn=  0.0000
     atom  32 (R=0.089)  charge=  3.9831  magn=  0.0000
     atom  33 (R=0.089)  charge= 10.1706  magn=  0.0000
     atom  34 (R=0.089)  charge= 10.1691  magn= -0.0000
     atom  35 (R=0.089)  charge= 10.1694  magn=  0.0000
     atom  36 (R=0.089)  charge= 10.1694  magn=  0.0000
     atom  37 (R=0.089)  charge=  3.9721  magn=  0.0000
     atom  38 (R=0.089)  charge=  3.9865  magn= -0.0000
     atom  39 (R=0.089)  charge=  3.9908  magn= -0.0000
     atom  40 (R=0.089)  charge=  3.9908  magn= -0.0000
     atom  41 (R=0.089)  charge= 10.1713  magn= -0.0000
     atom  42 (R=0.089)  charge= 10.1717  magn= -0.0000
     atom  43 (R=0.089)  charge= 10.1722  magn= -0.0000
     atom  44 (R=0.089)  charge= 10.1717  magn= -0.0000
     atom  45 (R=0.089)  charge=  3.9831  magn=  0.0000
     atom  46 (R=0.089)  charge=  3.9910  magn=  0.0000
     atom  47 (R=0.089)  charge=  3.9831  magn=  0.0000
     atom  48 (R=0.089)  charge=  3.9905  magn= -0.0000
     atom  49 (R=0.089)  charge= 10.1713  magn= -0.0000
     atom  50 (R=0.089)  charge= 10.1717  magn= -0.0000
     atom  51 (R=0.089)  charge= 10.1717  magn= -0.0000
     atom  52 (R=0.089)  charge= 10.1722  magn= -0.0000
     atom  53 (R=0.089)  charge=  3.9831  magn=  0.0000
     atom  54 (R=0.089)  charge=  3.9910  magn=  0.0000
     atom  55 (R=0.089)  charge=  3.9905  magn= -0.0000
     atom  56 (R=0.089)  charge=  3.9831  magn=  0.0000
     atom  57 (R=0.089)  charge= 17.3828  magn=  0.0000
     atom  58 (R=0.089)  charge= 10.1324  magn= -0.0000
     atom  59 (R=0.089)  charge= 10.1324  magn= -0.0000
     atom  60 (R=0.089)  charge= 10.1324  magn= -0.0000
     atom  61 (R=0.089)  charge=  3.9827  magn= -0.0000
     atom  62 (R=0.089)  charge=  3.9827  magn= -0.0000
     atom  63 (R=0.089)  charge=  3.9827  magn= -0.0000

     End of self-consistent calculation

 ------ SPIN UP ------------

          k = 0.0000 0.0000 0.0000 (269825 PWs)   bands (ev):

  -104.5043 -62.0277 -61.8582 -61.8582  -7.6046  -7.2813  -7.2813  -7.2505
    -7.1852  -7.1852  -7.1338  -7.1338  -7.0977  -7.0455  -6.9533  -6.9047
    -6.9047  -6.8868  -6.8868  -6.8435  -6.8260  -6.8260  -6.8143  -6.8143
    -6.7959  -6.7599  -6.6980  -6.6980  -6.6550  -6.5982  -6.5982  -6.5969
    -6.4646  -6.3264  -6.3264  -4.4086  -4.3786  -4.3786  -4.3756  -4.3612
    -4.3612  -4.3492  -4.3492  -4.3313  -4.2860  -4.2788  -4.2788  -4.2727
    -4.2727  -4.2661  -3.7663  -3.7663  -3.7519  -3.7385  -3.7268  -3.7268
    -3.7228  -3.7179  -3.7179  -3.7065  -3.7065  -3.7016  -3.7016  -3.7004
    -3.6950  -3.6880  -3.6880  -3.6836  -3.6818  -3.6804  -3.6804  -3.6768
    -3.6742  -3.6742  -3.6671  -3.6534  -3.6534  -3.6401  -3.6401  -3.6359
    -3.6339  -3.6339  -3.6236  -3.6236  -3.6225  -3.6150  -3.6142  -3.6142
    -3.6091  -3.6091  -3.6053  -3.6035  -3.5978  -3.5978  -3.5897  -3.5852
    -3.5852  -3.5807  -3.5807  -3.5775  -3.5742  -3.5598  -3.5588  -3.5539
    -3.5539  -3.5474  -3.5474  -3.5466  -3.5453  -3.5453  -3.5450  -3.5375
    -3.5375  -3.5371  -3.5371  -3.5368  -3.5360  -3.5244  -3.5242  -3.5242
    -3.5192  -3.5192  -3.5079  -3.5079  -3.5034  -3.5033  -3.4880  -3.4873
    -3.4873  -3.4853  -3.4824  -3.4824  -3.4656  -3.4656  -3.4571  -3.4571
    -3.4391  -3.4391  -3.4353  -3.4346  -3.4346  -3.4240  -3.4219  -3.3990
    -3.3990  -3.3924  -3.3898  -3.3898  -3.3757  -3.3757  -3.3721  -3.3711
    -3.3711  -3.3693  -3.3575  -3.3575  -3.3571  -3.3543  -3.3543  -3.3530
    -3.3530  -3.3470  -3.3443  -3.3305  -3.3305  -3.3140  -3.2351  -3.2351
    -3.2250  -3.1861  -3.1752  -3.1752  -3.1521  -3.1521  -3.1321  -3.1321
    -3.1164  -3.0493  -3.0430  -3.0430  -3.0146  -2.9791  -2.9791  -2.9255
    -2.8179  -2.8116  -2.8116  -2.8040  -2.7802  -2.7802   0.2415   0.3243
     0.3457   0.3457   0.6709   0.6709   0.6746   0.7957   0.8842   0.8842
     0.9116   0.9333   0.9333   1.1504   1.2716   1.2716   1.2750   1.2750
     1.3424   1.3424   1.3444   1.3468   1.4293   1.4293   1.9072   2.3399
     2.4482   2.4482   2.5095   2.5279   2.5279   2.5548   2.5548   2.5552
     2.6236   2.6236   2.6889   2.6889   2.7067   2.7483   2.7798   2.7798
     2.8189   2.8189   2.8207   2.8445   2.8609   2.8677   2.8677   2.8823
     2.8823   2.9962   3.0479   3.0479   3.0969   3.2020   3.2020   3.2055
     3.3869   3.3869   3.4163   3.6211   3.6211   3.7648   3.7648   3.8755
     4.0259   4.0366   4.0366   4.0698   4.1124   4.1124   4.1855   4.1855
     4.2028   4.2784   4.2784   4.2819   4.2943   4.3086   4.3086   4.3476
     4.3476   4.3849   4.4748   4.4748   4.4781   4.4875   4.5027   4.5027
     4.5605   4.7127   4.7127   4.9908   4.9908   5.1933   5.5158   5.5158
     5.7728   7.7780   8.0279   8.0279   8.7748   8.7888   8.7888   8.8678
     8.9487   8.9487   9.0336   9.2651   9.5557   9.5751   9.5751   9.9111
     9.9111   9.9830  10.0033  10.0033  10.0579  10.0579  10.0585  10.0920
    10.1009  10.1009  10.2213  10.2213  10.2353  10.2373  10.2607  10.2607
    10.2775  10.2775  10.3199  10.6089  10.6089  10.7224  11.1234  11.1799
    11.1799  11.2259  11.2259  11.3537  11.3943  11.3943  11.4090  11.6729
    11.7010  11.7010  11.8967  11.9017  11.9018  11.9032  12.0892  12.0907
    12.0911  12.1172

     occupation numbers
     1.0000   1.0000   1.0000   1.0000   1.0000   1.0000   1.0000   1.0000
     1.0000   1.0000   1.0000   1.0000   1.0000   1.0000   1.0000   1.0000
     1.0000   1.0000   1.0000   1.0000   1.0000   1.0000   1.0000   1.0000
     1.0000   1.0000   1.0000   1.0000   1.0000   1.0000   1.0000   1.0000
     1.0000   1.0000   1.0000   1.0000   1.0000   1.0000   1.0000   1.0000
     1.0000   1.0000   1.0000   1.0000   1.0000   1.0000   1.0000   1.0000
     1.0000   1.0000   1.0000   1.0000   1.0000   1.0000   1.0000   1.0000
     1.0000   1.0000   1.0000   1.0000   1.0000   1.0000   1.0000   1.0000
     1.0000   1.0000   1.0000   1.0000   1.0000   1.0000   1.0000   1.0000
     1.0000   1.0000   1.0000   1.0000   1.0000   1.0000   1.0000   1.0000
     1.0000   1.0000   1.0000   1.0000   1.0000   1.0000   1.0000   1.0000
     1.0000   1.0000   1.0000   1.0000   1.0000   1.0000   1.0000   1.0000
     1.0000   1.0000   1.0000   1.0000   1.0000   1.0000   1.0000   1.0000
     1.0000   1.0000   1.0000   1.0000   1.0000   1.0000   1.0000   1.0000
     1.0000   1.0000   1.0000   1.0000   1.0000   1.0000   1.0000   1.0000
     1.0000   1.0000   1.0000   1.0000   1.0000   1.0000   1.0000   1.0000
     1.0000   1.0000   1.0000   1.0000   1.0000   1.0000   1.0000   1.0000
     1.0000   1.0000   1.0000   1.0000   1.0000   1.0000   1.0000   1.0000
     1.0000   1.0000   1.0000   1.0000   1.0000   1.0000   1.0000   1.0000
     1.0000   1.0000   1.0000   1.0000   1.0000   1.0000   1.0000   1.0000
     1.0000   1.0000   1.0000   1.0000   1.0000   1.0000   1.0000   1.0000
     1.0000   1.0000   1.0000   1.0000   1.0000   1.0000   1.0000   1.0000
     1.0000   1.0000   1.0000   1.0000   1.0000   1.0000   1.0000   1.0000
     1.0000   1.0000   1.0000   1.0000   1.0000   1.0000   1.0000   1.0000
     1.0000   1.0000   1.0000   1.0000   1.0000   1.0000   1.0000   1.0000
     1.0000   1.0000   1.0000   1.0000   1.0000   1.0000   1.0000   1.0000
     1.0000   1.0000   1.0000   1.0000   1.0000   1.0000   1.0000   1.0000
     1.0000   1.0000   1.0000   1.0000   1.0000   1.0000   1.0000   1.0000
     1.0000   1.0000   1.0000   1.0000   1.0000   1.0000   1.0000   1.0000
     1.0000   1.0000   1.0000   1.0000   1.0000   1.0000   1.0000   1.0000
     1.0000   1.0000   1.0000   1.0000   1.0000   1.0000   1.0000   1.0000
     1.0000   1.0000   1.0000   1.0000   1.0000   1.0000   1.0000   1.0000
     1.0000   1.0000   1.0000   1.0000   1.0000   1.0000   1.0000   1.0000
     1.0000   1.0000   1.0000   1.0000   1.0000   1.0000   1.0000   1.0000
     1.0000   1.0000   1.0000   1.0000   1.0000   1.0000   1.0000   1.0000
     1.0000   1.0000   1.0000   1.0000   1.0000   1.0000   1.0000   1.0000
     0.0000   0.0000   0.0000   0.0000   0.0000   0.0000   0.0000   0.0000
     0.0000   0.0000   0.0000   0.0000   0.0000   0.0000   0.0000   0.0000
     0.0000   0.0000   0.0000   0.0000   0.0000   0.0000   0.0000   0.0000
     0.0000   0.0000   0.0000   0.0000   0.0000   0.0000   0.0000   0.0000
     0.0000   0.0000   0.0000   0.0000   0.0000   0.0000   0.0000   0.0000
     0.0000   0.0000   0.0000   0.0000   0.0000   0.0000   0.0000   0.0000
     0.0000   0.0000   0.0000   0.0000   0.0000   0.0000   0.0000   0.0000
     0.0000   0.0000

[...]

          k =-0.5000-0.5000-0.5000 (269968 PWs)   bands (ev):

[...]

 ------ SPIN DOWN ----------

[...]

          k =-0.2500 0.0000 0.2500 (269929 PWs)   bands (ev):

[...]

          k = 0.2500-0.2500-0.5000 (269988 PWs)   bands (ev):

  -104.5043 -62.0277 -61.8582 -61.8582  -7.4901  -7.4038  -7.3230  -7.2856
    -7.2372  -7.1910  -7.1198  -7.0773  -7.0607  -7.0561  -6.9932  -6.9509
    -6.9304  -6.8799  -6.8469  -6.8296  -6.8142  -6.8050  -6.7764  -6.7679
    -6.7560  -6.7135  -6.6976  -6.6818  -6.6648  -6.6433  -6.6319  -6.6209
    -6.4538  -6.3368  -6.3330  -4.4082  -4.3785  -4.3783  -4.3739  -4.3611
    -4.3609  -4.3492  -4.3489  -4.3318  -4.2864  -4.2787  -4.2783  -4.2719
    -4.2716  -4.2669  -3.7613  -3.7596  -3.7444  -3.7396  -3.7339  -3.7288
    -3.7255  -3.7226  -3.7191  -3.7108  -3.7088  -3.7072  -3.7039  -3.7033
    -3.6957  -3.6921  -3.6879  -3.6841  -3.6820  -3.6768  -3.6726  -3.6682
    -3.6642  -3.6615  -3.6581  -3.6511  -3.6478  -3.6450  -3.6441  -3.6384
    -3.6377  -3.6324  -3.6298  -3.6258  -3.6229  -3.6203  -3.6155  -3.6094
    -3.6091  -3.6053  -3.6014  -3.5999  -3.5972  -3.5943  -3.5906  -3.5871
    -3.5860  -3.5831  -3.5779  -3.5756  -3.5715  -3.5696  -3.5678  -3.5645
    -3.5595  -3.5574  -3.5552  -3.5518  -3.5486  -3.5471  -3.5455  -3.5421
    -3.5370  -3.5325  -3.5315  -3.5272  -3.5248  -3.5235  -3.5197  -3.5187
    -3.5119  -3.5110  -3.5080  -3.5077  -3.5050  -3.5020  -3.4918  -3.4876
    -3.4791  -3.4786  -3.4761  -3.4748  -3.4696  -3.4683  -3.4581  -3.4570
    -3.4506  -3.4477  -3.4409  -3.4385  -3.4363  -3.4278  -3.4108  -3.4023
    -3.4014  -3.3949  -3.3891  -3.3884  -3.3852  -3.3799  -3.3740  -3.3663
    -3.3640  -3.3606  -3.3590  -3.3561  -3.3536  -3.3504  -3.3485  -3.3414
    -3.3402  -3.3375  -3.3364  -3.3341  -3.3333  -3.3199  -3.3096  -3.2725
    -3.2380  -3.2238  -3.1968  -3.1567  -3.1295  -3.1150  -3.0868  -3.0547
    -3.0442  -3.0331  -2.9961  -2.9918  -2.9730  -2.9477  -2.9390  -2.9289
    -2.9045  -2.8849  -2.8768  -2.8605  -2.8398  -2.8362   0.4516   0.5532
     0.6132   0.7158   0.7498   0.7700   0.7878   0.7955   0.8178   0.8342
     0.8452   0.8690   0.8892   0.9197   0.9236   0.9585   0.9869   1.1356
     1.1484   1.2572   1.3287   1.3748   1.3960   1.4279   1.5078   1.8920
     2.1732   2.3137   2.3626   2.3955   2.4536   2.4998   2.5163   2.5614
     2.6198   2.6610   2.6742   2.7222   2.7588   2.7875   2.8357   2.8867
     3.0377   3.0458   3.1725   3.1767   3.2200   3.2414   3.2737   3.3131
     3.3349   3.3625   3.3771   3.4174   3.4319   3.4636   3.4756   3.4973
     3.5368   3.5424   3.5509   3.5822   3.5912   3.6075   3.6378   3.6742
     3.7019   3.7459   3.7839   3.7943   3.8191   3.8574   3.9132   3.9449
     3.9881   4.0136   4.0644   4.0990   4.1226   4.1614   4.1925   4.2177
     4.2731   4.3028   4.3386   4.3740   4.4748   4.5473   4.6193   4.7026
     4.7241   4.7554   4.8197   4.8899   4.9126   4.9402   5.3623   5.4318
     6.0534   7.7910   7.8935   8.7478   8.9527   9.0763   9.1272   9.1795
     9.3870   9.4218   9.4831   9.5268   9.5745   9.6226   9.6459   9.6609
     9.6853   9.7589   9.7912   9.8422   9.8613   9.8910   9.9142   9.9939
    10.0037  10.0310  10.0804  10.1144  10.1389  10.1871  10.2249  10.3214
    10.3955  10.4008  10.4516  10.5921  10.7117  10.7688  10.8187  10.8427
    10.8815  10.9946  11.0513  11.1644  11.2668  11.3343  11.3462  11.4095
    11.4846  11.5320  11.5419  11.5475  11.6230  11.6266  11.6487  11.6732
    11.6856  11.7236

     occupation numbers
     1.0000   1.0000   1.0000   1.0000   1.0000   1.0000   1.0000   1.0000
     1.0000   1.0000   1.0000   1.0000   1.0000   1.0000   1.0000   1.0000
     1.0000   1.0000   1.0000   1.0000   1.0000   1.0000   1.0000   1.0000
     1.0000   1.0000   1.0000   1.0000   1.0000   1.0000   1.0000   1.0000
     1.0000   1.0000   1.0000   1.0000   1.0000   1.0000   1.0000   1.0000
     1.0000   1.0000   1.0000   1.0000   1.0000   1.0000   1.0000   1.0000
     1.0000   1.0000   1.0000   1.0000   1.0000   1.0000   1.0000   1.0000
     1.0000   1.0000   1.0000   1.0000   1.0000   1.0000   1.0000   1.0000
     1.0000   1.0000   1.0000   1.0000   1.0000   1.0000   1.0000   1.0000
     1.0000   1.0000   1.0000   1.0000   1.0000   1.0000   1.0000   1.0000
     1.0000   1.0000   1.0000   1.0000   1.0000   1.0000   1.0000   1.0000
     1.0000   1.0000   1.0000   1.0000   1.0000   1.0000   1.0000   1.0000
     1.0000   1.0000   1.0000   1.0000   1.0000   1.0000   1.0000   1.0000
     1.0000   1.0000   1.0000   1.0000   1.0000   1.0000   1.0000   1.0000
     1.0000   1.0000   1.0000   1.0000   1.0000   1.0000   1.0000   1.0000
     1.0000   1.0000   1.0000   1.0000   1.0000   1.0000   1.0000   1.0000
     1.0000   1.0000   1.0000   1.0000   1.0000   1.0000   1.0000   1.0000
     1.0000   1.0000   1.0000   1.0000   1.0000   1.0000   1.0000   1.0000
     1.0000   1.0000   1.0000   1.0000   1.0000   1.0000   1.0000   1.0000
     1.0000   1.0000   1.0000   1.0000   1.0000   1.0000   1.0000   1.0000
     1.0000   1.0000   1.0000   1.0000   1.0000   1.0000   1.0000   1.0000
     1.0000   1.0000   1.0000   1.0000   1.0000   1.0000   1.0000   1.0000
     1.0000   1.0000   1.0000   1.0000   1.0000   1.0000   1.0000   1.0000
     1.0000   1.0000   1.0000   1.0000   1.0000   1.0000   1.0000   1.0000
     1.0000   1.0000   1.0000   1.0000   1.0000   1.0000   1.0000   1.0000
     1.0000   1.0000   1.0000   1.0000   1.0000   1.0000   1.0000   1.0000
     1.0000   1.0000   1.0000   1.0000   1.0000   1.0000   1.0000   1.0000
     1.0000   1.0000   1.0000   1.0000   1.0000   1.0000   1.0000   1.0000
     1.0000   1.0000   1.0000   1.0000   1.0000   1.0000   1.0000   1.0000
     1.0000   1.0000   1.0000   1.0000   1.0000   1.0000   1.0000   1.0000
     1.0000   1.0000   1.0000   1.0000   1.0000   1.0000   1.0000   1.0000
     1.0000   1.0000   1.0000   1.0000   1.0000   1.0000   1.0000   1.0000
     1.0000   1.0000   1.0000   1.0000   1.0000   1.0000   1.0000   1.0000
     1.0000   1.0000   1.0000   1.0000   1.0000   1.0000   1.0000   1.0000
     1.0000   1.0000   1.0000   1.0000   1.0000   1.0000   1.0000   1.0000
     1.0000   1.0000   1.0000   1.0000   1.0000   1.0000   1.0000   1.0000
     0.0000   0.0000   0.0000   0.0000   0.0000   0.0000   0.0000   0.0000
     0.0000   0.0000   0.0000   0.0000   0.0000   0.0000   0.0000   0.0000
     0.0000   0.0000   0.0000   0.0000   0.0000   0.0000   0.0000   0.0000
     0.0000   0.0000   0.0000   0.0000   0.0000   0.0000   0.0000   0.0000
     0.0000   0.0000   0.0000   0.0000   0.0000   0.0000   0.0000   0.0000
     0.0000   0.0000   0.0000   0.0000   0.0000   0.0000   0.0000   0.0000
     0.0000   0.0000   0.0000   0.0000   0.0000   0.0000   0.0000   0.0000
     0.0000   0.0000

     the Fermi energy is     5.6323 ev

!    total energy              =  -10101.02338618 Ry
     total all-electron energy =   -139419.552434 Ry
     estimated scf accuracy    <          3.3E-09 Ry
     smearing contrib. (-TS)   =      -0.00000000 Ry
     internal energy E=F+TS    =  -10101.02338618 Ry

     The total energy is F=E-TS. E is the sum of the following terms:
     one-electron contribution =   -3090.23464573 Ry
     hartree contribution      =    2121.40148728 Ry
     xc contribution           =   -1660.94558362 Ry
     ewald contribution        =   -2984.70201120 Ry
     Hubbard energy            =       0.27383804 Ry
     one-center paw contrib.   =   -4486.81647096 Ry
      -> PAW hartree energy AE =     123.67349894 Ry
      -> PAW hartree energy PS =    -123.02593762 Ry
      -> PAW xc energy AE      =    -143.25951570 Ry
      -> PAW xc energy PS      =      47.19640077 Ry
      -> total E_H with PAW    =    2122.04904860 Ry
      -> total E_XC with PAW   =   -1757.00869855 Ry

     total magnetization       =     0.00 Bohr mag/cell
     absolute magnetization    =     0.00 Bohr mag/cell

     convergence has been achieved in  14 iterations

     Writing all to output data dir ./out/Cu_vac_qp1_U3_unrlxd.save/

     General routines

     Parallel routines

     Hubbard U routines

     PAW routines

   This run was terminated on:   8: 6:37  25Jul2024

   JOB DONE.