     Program PWSCF v.7.2 starts on 28Jun2024 at 14:32:46

     Reading input from 2.Ni_in_ZnS.scf.qn1.in

     Current dimensions of program PWSCF are:
     Max number of different atomic species (ntypx) = 10
     Max number of k-points (npk) =  40000
     Max angular momentum in pseudopotentials (lmaxx) =  4
     file S.pbe-n-kjpaw_psl.1.0.0.UPF: wavefunction(s)  3S 3P renormalized
     file Zn.pbe-dnl-kjpaw_psl.1.0.0.UPF: wavefunction(s)  4S 3D renormalized
     file Ni.pbe-spn-kjpaw_psl.1.0.0.UPF: wavefunction(s)  3P 3D renormalized

     K-points division:     npool     =      10
     R & G space division:  proc/nbgrp/npool/nimage =     112
     Subspace diagonalization in iterative solution of the eigenvalue problem:
     one sub-group per band group will be used

     Using Slab Decomposition

     bravais-lattice index     =            1
     lattice parameter (alat)  =      20.5686  a.u.
     unit-cell volume          =    8701.8437 (a.u.)^3
     number of atoms/cell      =           64
     number of atomic types    =            3
     number of electrons       =       583.00
     number of Kohn-Sham states=          350
     kinetic-energy cutoff     =     150.0000  Ry
     charge density cutoff     =     600.0000  Ry
     scf convergence threshold =      1.0E-08
     mixing beta               =       0.7000
     number of iterations used =            8  plain     mixing
     Exchange-correlation= SLA  PW   PBX  PBC
                           (   1   4   3   4   0   0   0)

     celldm(1)=  20.568554  celldm(2)=   0.000000  celldm(3)=   0.000000
     celldm(4)=   0.000000  celldm(5)=   0.000000  celldm(6)=   0.000000

     crystal axes: (cart. coord. in units of alat)
               a(1) = (   1.000000   0.000000   0.000000 )
               a(2) = (   0.000000   1.000000   0.000000 )
               a(3) = (   0.000000   0.000000   1.000000 )

     reciprocal axes: (cart. coord. in units 2 pi/alat)
               b(1) = (  1.000000  0.000000  0.000000 )
               b(2) = (  0.000000  1.000000  0.000000 )
               b(3) = (  0.000000  0.000000  1.000000 )

     PseudoPot. # 1 for S  read from file:
     /arf/home/amuhaymin/pseudo/S.pbe-n-kjpaw_psl.1.0.0.UPF
     MD5 check sum: fb45dfebcf3e72a4e1bd4a866ec2e262
     Pseudo is Projector augmented-wave + core cor, Zval =  6.0
     Generated using &quot;atomic&quot; code by A. Dal Corso  v.6.3
     Shape of augmentation charge: PSQ
     Using radial grid of 1151 points,  6 beta functions with:
                l(1) =   0
                l(2) =   0
                l(3) =   1
                l(4) =   1
                l(5) =   2
                l(6) =   2
     Q(r) pseudized with 0 coefficients

     PseudoPot. # 2 for Zn read from file:
     /arf/home/amuhaymin/pseudo/Zn.pbe-dnl-kjpaw_psl.1.0.0.UPF
     MD5 check sum: c608214d9520ac179f507641260889e3
     Pseudo is Projector augmented-wave + core cor, Zval = 12.0
     Generated using &quot;atomic&quot; code by A. Dal Corso  v.6.2.2
     Shape of augmentation charge: PSQ
     Using radial grid of 1201 points,  6 beta functions with:
                l(1) =   0
                l(2) =   0
                l(3) =   1
                l(4) =   1
                l(5) =   2
                l(6) =   2
     Q(r) pseudized with 0 coefficients

     PseudoPot. # 3 for Ni read from file:
     /arf/home/amuhaymin/pseudo/Ni.pbe-spn-kjpaw_psl.1.0.0.UPF
     MD5 check sum: 6e86b733589c3ad8389697b807d86aa7
     Pseudo is Projector augmented-wave + core cor, Zval = 18.0
     Generated using &quot;atomic&quot; code by A. Dal Corso  v.6.3
     Shape of augmentation charge: PSQ
     Using radial grid of 1195 points,  6 beta functions with:
                l(1) =   0
                l(2) =   0
                l(3) =   1
                l(4) =   1
                l(5) =   2
                l(6) =   2
     Q(r) pseudized with 0 coefficients

     atomic species   valence    mass     pseudopotential
        S              6.00    32.06500     S ( 1.00)
        Zn            12.00    65.38000     Zn( 1.00)
        Ni            18.00    63.54600     Ni( 1.00)

     Starting magnetic structure
     atomic species   magnetization
        S            0.000
        Zn           0.000
        Ni           0.056

     24 Sym. Ops. (no inversion) found

                                    s                        frac. trans.

      isym =  1     identity

 cryst.   s( 1) = (     1          0          0      )
                  (     0          1          0      )
                  (     0          0          1      )

 cart.    s( 1) = (  1.0000000  0.0000000  0.0000000 )
                  (  0.0000000  1.0000000  0.0000000 )
                  (  0.0000000  0.0000000  1.0000000 )

      isym =  2     180 deg rotation - cart. axis [0,0,1]

[...]

 cryst.   s( 9) = (     0          1          0      )
                  (     0          0          1      )
                  (     1          0          0      )

 cart.    s( 9) = (  0.0000000  0.0000000  1.0000000 )
                  (  1.0000000  0.0000000  0.0000000 )
                  (  0.0000000  1.0000000  0.0000000 )

[...]

 cryst.   s(10) = (     0         -1          0      )
                  (     0          0         -1      )
                  (     1          0          0      )

 cart.    s(10) = (  0.0000000  0.0000000  1.0000000 )
                  ( -1.0000000  0.0000000  0.0000000 )
                  (  0.0000000 -1.0000000  0.0000000 )

[...]

      isym = 12     120 deg rotation - cart. axis [-1,-1,1]

[...]

      isym = 13     inv. 180 deg rotation - cart. axis [1,1,0]

[...]

      isym = 24     inv.  90 deg rotation - cart. axis [1,0,0]

 cryst.   s(24) = (    -1          0          0      )
                  (     0          0         -1      )
                  (     0          1          0      )

 cart.    s(24) = ( -1.0000000  0.0000000  0.0000000 )
                  (  0.0000000  0.0000000  1.0000000 )
                  (  0.0000000 -1.0000000  0.0000000 )

     point group T_d (-43m)
     there are  5 classes
     the character table:

       E     8C3   3C2   6S4   6s_d
A_1    1.00  1.00  1.00  1.00  1.00
A_2    1.00  1.00  1.00 -1.00 -1.00
E      2.00 -1.00  2.00  0.00  0.00
T_1    3.00  0.00 -1.00  1.00 -1.00
T_2    3.00  0.00 -1.00 -1.00  1.00

     the symmetry operations in each class and the name of the first element:

     E        1
          identity
     8C3      5    7    8    6   12    9   10   11
          120 deg rotation - cart. axis [-1,-1,-1]
     3C2      2    3    4
          180 deg rotation - cart. axis [0,0,1]
     6S4     15   16   20   19   23   24
          inv.  90 deg rotation - cart. axis [0,0,-1]
     6s_d    13   14   17   18   21   22
          inv. 180 deg rotation - cart. axis [1,1,0]

   Cartesian axes

     site n.     atom                  positions (alat units)
         1           Zn  tau(   1) = (   0.0000000   0.0000000   0.0000000  )
         2           Zn  tau(   2) = (   0.0001169   0.2505328   0.2505328  )
         3           Zn  tau(   3) = (   0.2505328   0.0001169   0.2505328  )
         4           Zn  tau(   4) = (   0.2505328   0.2505328   0.0001169  )
         5           S   tau(   5) = (   0.1255385   0.3751003   0.3751003  )
         6           S   tau(   6) = (   0.1250575   0.1250575   0.1250575  )
         7           S   tau(   7) = (   0.3751003   0.3751003   0.1255385  )
         8           S   tau(   8) = (   0.3751003   0.1255385   0.3751003  )
         9           Zn  tau(   9) = (   0.0000000   0.0000000   0.5000000  )
        10           Zn  tau(  10) = (  -0.0001169   0.2505328   0.7494672  )
        11           Zn  tau(  11) = (   0.2505328  -0.0001169   0.7494672  )
        12           Zn  tau(  12) = (   0.2529842   0.2529842   0.5026889  )
        13           S   tau(  13) = (   0.1251197   0.3751241   0.8748803  )
        14           S   tau(  14) = (   0.1251197   0.1251197   0.6248759  )
        15           S   tau(  15) = (   0.3787475   0.3787475   0.6212525  )
        16           S   tau(  16) = (   0.3751241   0.1251197   0.8748803  )
        17           Zn  tau(  17) = (   0.0000000   0.5000000   0.0000000  )
        18           Zn  tau(  18) = (  -0.0001169   0.7494672   0.2505328  )
        19           Zn  tau(  19) = (   0.2529842   0.5026889   0.2529842  )
        20           Zn  tau(  20) = (   0.2505328   0.7494672  -0.0001169  )
        21           S   tau(  21) = (   0.1251197   0.8748803   0.3751241  )
        22           S   tau(  22) = (   0.1251197   0.6248759   0.1251197  )
        23           S   tau(  23) = (   0.3751241   0.8748803   0.1251197  )
        24           S   tau(  24) = (   0.3787475   0.6212525   0.3787475  )
        25           Zn  tau(  25) = (   0.0000000   0.5000000   0.5000000  )
        26           Zn  tau(  26) = (   0.0001169   0.7494672   0.7494672  )
        27           Zn  tau(  27) = (   0.2529842   0.4973111   0.7470158  )
        28           Zn  tau(  28) = (   0.2529842   0.7470158   0.4973111  )
        29           S   tau(  29) = (   0.1250575   0.8749425   0.8749425  )
        30           S   tau(  30) = (   0.1255385   0.6248997   0.6248997  )
        31           S   tau(  31) = (   0.3751003   0.8744615   0.6248997  )
        32           S   tau(  32) = (   0.3751003   0.6248997   0.8744615  )
        33           Zn  tau(  33) = (   0.5000000   0.0000000   0.0000000  )
        34           Zn  tau(  34) = (   0.5026889   0.2529842   0.2529842  )
        35           Zn  tau(  35) = (   0.7494672  -0.0001169   0.2505328  )
        36           Zn  tau(  36) = (   0.7494672   0.2505328  -0.0001169  )
        37           S   tau(  37) = (   0.6212525   0.3787475   0.3787475  )
        38           S   tau(  38) = (   0.6248759   0.1251197   0.1251197  )
        39           S   tau(  39) = (   0.8748803   0.3751241   0.1251197  )
        40           S   tau(  40) = (   0.8748803   0.1251197   0.3751241  )
        41           Zn  tau(  41) = (   0.5000000   0.0000000   0.5000000  )
        42           Zn  tau(  42) = (   0.4973111   0.2529842   0.7470158  )
        43           Zn  tau(  43) = (   0.7494672   0.0001169   0.7494672  )
        44           Zn  tau(  44) = (   0.7470158   0.2529842   0.4973111  )
        45           S   tau(  45) = (   0.6248997   0.3751003   0.8744615  )
        46           S   tau(  46) = (   0.6248997   0.1255385   0.6248997  )
        47           S   tau(  47) = (   0.8744615   0.3751003   0.6248997  )
        48           S   tau(  48) = (   0.8749425   0.1250575   0.8749425  )
        49           Zn  tau(  49) = (   0.5000000   0.5000000   0.0000000  )
        50           Zn  tau(  50) = (   0.4973111   0.7470158   0.2529842  )
        51           Zn  tau(  51) = (   0.7470158   0.4973111   0.2529842  )
        52           Zn  tau(  52) = (   0.7494672   0.7494672   0.0001169  )
        53           S   tau(  53) = (   0.6248997   0.8744615   0.3751003  )
        54           S   tau(  54) = (   0.6248997   0.6248997   0.1255385  )
        55           S   tau(  55) = (   0.8749425   0.8749425   0.1250575  )
[...]
     atom  31 (R=0.087)  charge=  3.7854  magn=  0.0001
     atom  32 (R=0.087)  charge=  3.7854  magn=  0.0001
     atom  33 (R=0.088)  charge= 10.1087  magn= -0.0001
     atom  34 (R=0.088)  charge= 10.1082  magn=  0.0007
     atom  35 (R=0.088)  charge= 10.1078  magn= -0.0000
     atom  36 (R=0.088)  charge= 10.1078  magn= -0.0000
     atom  37 (R=0.087)  charge=  3.7926  magn=  0.0215
     atom  38 (R=0.087)  charge=  3.7861  magn=  0.0014
     atom  39 (R=0.087)  charge=  3.7861  magn=  0.0014
     atom  40 (R=0.087)  charge=  3.7861  magn=  0.0014
     atom  41 (R=0.088)  charge= 10.1076  magn=  0.0000
     atom  42 (R=0.088)  charge= 10.1082  magn=  0.0007
     atom  43 (R=0.088)  charge= 10.1078  magn= -0.0000
     atom  44 (R=0.088)  charge= 10.1082  magn=  0.0007
     atom  45 (R=0.087)  charge=  3.7854  magn=  0.0001
     atom  46 (R=0.087)  charge=  3.7854  magn=  0.0001
     atom  47 (R=0.087)  charge=  3.7854  magn=  0.0001
     atom  48 (R=0.087)  charge=  3.7871  magn=  0.0001
     atom  49 (R=0.088)  charge= 10.1076  magn=  0.0000
     atom  50 (R=0.088)  charge= 10.1082  magn=  0.0007
     atom  51 (R=0.088)  charge= 10.1082  magn=  0.0007
     atom  52 (R=0.088)  charge= 10.1078  magn= -0.0000
     atom  53 (R=0.087)  charge=  3.7854  magn=  0.0001
     atom  54 (R=0.087)  charge=  3.7854  magn=  0.0001
     atom  55 (R=0.087)  charge=  3.7871  magn=  0.0001
     atom  56 (R=0.087)  charge=  3.7854  magn=  0.0001
     atom  57 (R=0.087)  charge= 16.2284  magn=  0.7976
     atom  58 (R=0.088)  charge= 10.1082  magn=  0.0007
     atom  59 (R=0.088)  charge= 10.1082  magn=  0.0007
     atom  60 (R=0.088)  charge= 10.1082  magn=  0.0007
     atom  61 (R=0.087)  charge=  3.7861  magn=  0.0014
     atom  62 (R=0.087)  charge=  3.7926  magn=  0.0215
     atom  63 (R=0.087)  charge=  3.7861  magn=  0.0014
     atom  64 (R=0.087)  charge=  3.7861  magn=  0.0014

     End of self-consistent calculation

 ------ SPIN UP ------------

          k = 0.0000 0.0000 0.0000 (269825 PWs)   bands (ev):

   -95.8449 -56.2602 -56.2602 -56.2602  -7.4475  -6.9165  -6.9165  -6.9075
    -6.9075  -6.9075  -6.8866  -6.6117  -6.6117  -6.6117  -6.6081  -6.5928
    -6.5928  -6.5907  -6.5907  -6.5907  -6.5902  -6.5902  -6.5902  -6.4978
    -6.4978  -6.4978  -6.4470  -6.2919  -6.2919  -6.2919  -6.2609  -6.2609
    -6.2609  -6.1607  -6.1607  -6.1607  -0.7357  -0.7357  -0.7357  -0.7282
    -0.7282  -0.7281  -0.6887  -0.6887  -0.6728  -0.6702  -0.6702  -0.6702
    -0.6138  -0.6138  -0.6138  -0.6111  -0.6111  -0.5949  -0.5949  -0.5949
    -0.5908  -0.5908  -0.5908  -0.5778  -0.5778  -0.5778  -0.5777  -0.5652
    -0.5652  -0.5652  -0.5579  -0.5579  -0.5578  -0.5578  -0.5578  -0.5550
    -0.5478  -0.5478  -0.5478  -0.5431  -0.5431  -0.5431  -0.5337  -0.5337
    -0.5337  -0.5075  -0.5075  -0.5075  -0.5063  -0.5063  -0.5039  -0.5039
    -0.5039  -0.4960  -0.4771  -0.4771  -0.4771  -0.4527  -0.4527  -0.4381
    -0.4381  -0.4381  -0.4110  -0.4110  -0.4110  -0.4056  -0.4056  -0.4056
    -0.3946  -0.3946  -0.3946  -0.3931  -0.3931  -0.3779  -0.3779  -0.3779
    -0.3689  -0.3629  -0.3629  -0.3629  -0.3104  -0.3104  -0.3104  -0.2919
    -0.2919  -0.2798  -0.2798  -0.2798  -0.2788  -0.2788  -0.2788  -0.2672
    -0.2643  -0.2643  -0.2578  -0.2538  -0.2538  -0.2538  -0.2351  -0.2351
    -0.2351  -0.2325  -0.2325  -0.2221  -0.2158  -0.2158  -0.2095  -0.2091
    -0.2091  -0.2026  -0.2026  -0.2026  -0.1998  -0.1998  -0.1998  -0.1900
    -0.1792  -0.1792  -0.1792  -0.1715  -0.1715  -0.1486  -0.1486  -0.1486
    -0.1478  -0.1476  -0.1476  -0.1225  -0.1225  -0.1225  -0.1220  -0.1220
    -0.1220  -0.1134  -0.1134  -0.1134  -0.1054  -0.1054  -0.0867  -0.0867
    -0.0867  -0.0844  -0.0200  -0.0200  -0.0200   0.0047   0.0047   0.0047
     0.0206   0.1443   0.1443   0.1443   0.1821   0.1821   0.1821   0.3948
     0.3948   0.3948   0.4333   1.0165   1.0237   1.0237   1.0674   1.0674
     1.0674   1.0736   1.0736   1.2388   1.5598   1.5598   1.5598   1.6536
     1.6536   1.6774   1.6774   1.6774   1.6817   1.6817   1.6817   1.9930
     2.8170   2.8170   2.8327   2.8327   2.8327   2.8915   2.8915   2.8915
     2.9033   2.9033   2.9033   2.9290   2.9437   2.9437   2.9437   2.9822
     2.9822   3.0790   3.0790   3.0821   3.0975   3.0975   3.0975   3.1161
     3.1161   3.1161   3.1429   3.1429   3.1429   3.2805   3.4063   3.4063
     3.4063   3.4104   3.4104   3.4104   4.0272   4.0272   4.0272   4.3417
     4.3417   4.3417   4.3550   4.3550   4.3550   4.3755   4.3755   4.3755
     4.5224   4.5224   4.5224   4.5288   4.5288   4.6514   4.6514   4.6514
     4.6558   4.6558   4.6558   4.6753   4.6824   4.6824   4.6824   4.6916
     4.6916   4.7511   4.7511   4.7511   5.4144   5.4144   5.4144   6.0751
     6.0751   6.5239   6.5239   6.5239   7.5721   8.7988   8.7988   8.7988
     8.8631   9.0176   9.0176   9.0176   9.6160   9.6160   9.6376   9.9574
     9.9574   9.9712   9.9712   9.9712  10.0257  10.1044  10.1044  10.1269
    10.1269  10.1269  10.1398  10.2932  10.2932  10.2932  10.2982  10.2982
    10.3110  10.3110  10.3110  10.3228  10.3228  10.3228  10.7831  11.1996
    11.1996  11.1996  11.3031  11.3031  11.3031  11.4491  11.4491  11.4491
    11.4538  11.4538  11.8889  11.9451  11.9451  11.9451  12.1298  12.1299
    12.1303  12.1666  12.1667  12.1667  12.1738  12.1739

     occupation numbers
     1.0000   1.0000   1.0000   1.0000   1.0000   1.0000   1.0000   1.0000
     1.0000   1.0000   1.0000   1.0000   1.0000   1.0000   1.0000   1.0000
     1.0000   1.0000   1.0000   1.0000   1.0000   1.0000   1.0000   1.0000
     1.0000   1.0000   1.0000   1.0000   1.0000   1.0000   1.0000   1.0000
     1.0000   1.0000   1.0000   1.0000   1.0000   1.0000   1.0000   1.0000
     1.0000   1.0000   1.0000   1.0000   1.0000   1.0000   1.0000   1.0000
     1.0000   1.0000   1.0000   1.0000   1.0000   1.0000   1.0000   1.0000
     1.0000   1.0000   1.0000   1.0000   1.0000   1.0000   1.0000   1.0000
     1.0000   1.0000   1.0000   1.0000   1.0000   1.0000   1.0000   1.0000
     1.0000   1.0000   1.0000   1.0000   1.0000   1.0000   1.0000   1.0000
     1.0000   1.0000   1.0000   1.0000   1.0000   1.0000   1.0000   1.0000
     1.0000   1.0000   1.0000   1.0000   1.0000   1.0000   1.0000   1.0000
     1.0000   1.0000   1.0000   1.0000   1.0000   1.0000   1.0000   1.0000
     1.0000   1.0000   1.0000   1.0000   1.0000   1.0000   1.0000   1.0000
     1.0000   1.0000   1.0000   1.0000   1.0000   1.0000   1.0000   1.0000
     1.0000   1.0000   1.0000   1.0000   1.0000   1.0000   1.0000   1.0000
     1.0000   1.0000   1.0000   1.0000   1.0000   1.0000   1.0000   1.0000
     1.0000   1.0000   1.0000   1.0000   1.0000   1.0000   1.0000   1.0000
     1.0000   1.0000   1.0000   1.0000   1.0000   1.0000   1.0000   1.0000
     1.0000   1.0000   1.0000   1.0000   1.0000   1.0000   1.0000   1.0000
     1.0000   1.0000   1.0000   1.0000   1.0000   1.0000   1.0000   1.0000
     1.0000   1.0000   1.0000   1.0000   1.0000   1.0000   1.0000   1.0000
     1.0000   1.0000   1.0000   1.0000   1.0000   1.0000   1.0000   1.0000
     1.0000   1.0000   1.0000   1.0000   1.0000   1.0000   1.0000   1.0000
     1.0000   1.0000   1.0000   1.0000   1.0000   1.0000   1.0000   1.0000
     1.0000   1.0000   1.0000   1.0000   1.0000   1.0000   1.0000   1.0000
     1.0000   1.0000   1.0000   1.0000   1.0000   1.0000   1.0000   1.0000
     1.0000   1.0000   1.0000   1.0000   1.0000   1.0000   1.0000   1.0000
     1.0000   1.0000   1.0000   1.0000   1.0000   1.0000   1.0000   1.0000
     1.0000   1.0000   1.0000   1.0000   1.0000   1.0000   1.0000   1.0000
     1.0000   1.0000   1.0000   1.0000   1.0000   1.0000   1.0000   1.0000
     1.0000   1.0000   1.0000   1.0000   1.0000   1.0000   1.0000   1.0000
     1.0000   1.0000   1.0000   1.0000   1.0000   1.0000   1.0000   1.0000
     1.0000   1.0000   1.0000   1.0000   1.0000   1.0000   1.0000   1.0000
     1.0000   1.0000   1.0000   1.0000   1.0000   1.0000   1.0000   1.0000
     1.0000   1.0000   1.0000   1.0000   1.0000   1.0000   1.0000   1.0000
     1.0000   1.0000   1.0000   1.0000   0.0000   0.0000   0.0000   0.0000
     0.0000   0.0000   0.0000   0.0000   0.0000   0.0000   0.0000   0.0000
     0.0000   0.0000   0.0000   0.0000   0.0000   0.0000   0.0000   0.0000
     0.0000   0.0000   0.0000   0.0000   0.0000   0.0000   0.0000   0.0000
     0.0000   0.0000   0.0000   0.0000   0.0000   0.0000   0.0000   0.0000
     0.0000   0.0000   0.0000   0.0000   0.0000   0.0000   0.0000   0.0000
     0.0000   0.0000   0.0000   0.0000   0.0000   0.0000   0.0000   0.0000
     0.0000   0.0000   0.0000   0.0000   0.0000   0.0000

[...]

          k =-0.5000-0.5000-0.5000 (269968 PWs)   bands (ev):

[...]

 ------ SPIN DOWN ----------

[...]

          k = 0.2500-0.5000-0.5000 (269956 PWs)   bands (ev):

[...]

          k =-0.5000-0.5000-0.5000 (269968 PWs)   bands (ev):

   -94.9005 -55.3374 -55.3374 -55.3374  -7.0975  -7.0631  -7.0631  -7.0631
    -7.0240  -7.0240  -7.0240  -6.9189  -6.4827  -6.4827  -6.4827  -6.4603
    -6.4460  -6.4460  -6.4452  -6.4452  -6.4452  -6.4398  -6.4398  -6.4398
    -6.4156  -6.4156  -6.4156  -6.4091  -6.4091  -6.4078  -6.4078  -6.4078
    -6.3032  -6.2205  -6.2205  -6.2205  -0.6778  -0.6778  -0.6778  -0.6534
    -0.6534  -0.6534  -0.6476  -0.6476  -0.6476  -0.6450  -0.6450  -0.6450
    -0.6370  -0.6251  -0.6251  -0.6250  -0.6250  -0.6250  -0.6242  -0.6242
    -0.6242  -0.6200  -0.6200  -0.6200  -0.6035  -0.6015  -0.6015  -0.6015
    -0.5941  -0.5941  -0.5922  -0.5922  -0.5922  -0.5812  -0.5812  -0.5812
    -0.5753  -0.5753  -0.5753  -0.5703  -0.5703  -0.5703  -0.5356  -0.5229
    -0.5229  -0.5041  -0.5014  -0.5014  -0.5014  -0.4843  -0.4843  -0.4843
    -0.4792  -0.4792  -0.4792  -0.4701  -0.4701  -0.4701  -0.4671  -0.4671
    -0.4372  -0.4372  -0.4372  -0.4245  -0.4245  -0.4234  -0.4234  -0.4234
    -0.3931  -0.3804  -0.3804  -0.3804  -0.3604  -0.3604  -0.3599  -0.3599
    -0.3599  -0.3537  -0.3537  -0.3537  -0.3451  -0.3451  -0.3451  -0.3433
    -0.3349  -0.3349  -0.3349  -0.3252  -0.3252  -0.3252  -0.2989  -0.2841
    -0.2841  -0.2556  -0.2556  -0.2332  -0.2332  -0.2332  -0.2262  -0.2262
    -0.2262  -0.2128  -0.2128  -0.2084  -0.2084  -0.2084  -0.1998  -0.1998
    -0.1998  -0.1934  -0.1883  -0.1883  -0.1883  -0.1663  -0.1663  -0.1663
    -0.1558  -0.1558  -0.1558  -0.1397  -0.1397  -0.1397  -0.1154  -0.1154
    -0.1128  -0.1128  -0.1128  -0.1013  -0.1013  -0.1013  -0.0927  -0.0774
    -0.0774  -0.0774  -0.0693  -0.0693  -0.0693  -0.0665  -0.0517  -0.0517
    -0.0414  -0.0414  -0.0414  -0.0273  -0.0273  -0.0273  -0.0246  -0.0246
    -0.0138  -0.0138  -0.0138  -0.0102  -0.0102  -0.0102   0.0247   1.0714
     1.0714   1.0714   1.1089   1.1089   1.1099   1.1352   1.1352   1.1352
     1.1358   1.1358   1.1358   1.1694   1.1694   1.1694   1.2055   1.2055
     1.2079   1.2079   1.2079   1.2145   1.2145   1.2145   1.6893   2.6583
     2.6583   2.6583   2.7581   2.7673   2.7673   2.7673   2.9281   3.1076
     3.1076   3.1506   3.1506   3.1506   3.1845   3.1845   3.1845   3.1893
     3.2025   3.2025   3.2267   3.2267   3.2267   3.2289   3.2289   3.2289
     3.2380   3.2380   3.2380   3.2992   3.2992   3.2992   3.4173   3.8852
     3.8852   3.8852   3.9490   3.9490   3.9616   3.9780   3.9780   3.9780
     3.9849   3.9849   3.9849   3.9971   3.9971   4.0154   4.0154   4.0154
     4.0374   4.0374   4.0374   4.0691   4.0701   4.0701   4.0701   4.8263
     4.8263   4.8263   5.0359   5.0359   5.0690   5.0690   5.0690   5.0764
     5.0764   5.0764   5.0854   5.0854   5.1204   5.1204   5.1204   6.4572
     6.4572   7.2507   7.2507   7.2507   8.9053   8.9226   8.9226   8.9226
     8.9531   8.9531   8.9531   9.1364   9.8154   9.8154   9.8198   9.8198
     9.8198   9.8290   9.8290   9.8290   9.8372   9.8376   9.8376   9.8376
     9.8734   9.8734   9.8734   9.8825   9.8825   9.8825   9.9445   9.9445
     9.9958   9.9958   9.9958  10.3175  11.4006  11.4006  11.4006  11.4329
    11.4329  11.4329  11.4344  11.4344  11.4344  11.4385  11.4385  11.4385
    11.4431  11.4495  11.4495  11.4669  11.4669  11.4669  11.4987  11.4987
    11.6365  11.6365  11.6365  12.2100  12.3828  12.3830

     occupation numbers
     1.0000   1.0000   1.0000   1.0000   1.0000   1.0000   1.0000   1.0000
     1.0000   1.0000   1.0000   1.0000   1.0000   1.0000   1.0000   1.0000
     1.0000   1.0000   1.0000   1.0000   1.0000   1.0000   1.0000   1.0000
     1.0000   1.0000   1.0000   1.0000   1.0000   1.0000   1.0000   1.0000
     1.0000   1.0000   1.0000   1.0000   1.0000   1.0000   1.0000   1.0000
     1.0000   1.0000   1.0000   1.0000   1.0000   1.0000   1.0000   1.0000
     1.0000   1.0000   1.0000   1.0000   1.0000   1.0000   1.0000   1.0000
     1.0000   1.0000   1.0000   1.0000   1.0000   1.0000   1.0000   1.0000
     1.0000   1.0000   1.0000   1.0000   1.0000   1.0000   1.0000   1.0000
     1.0000   1.0000   1.0000   1.0000   1.0000   1.0000   1.0000   1.0000
     1.0000   1.0000   1.0000   1.0000   1.0000   1.0000   1.0000   1.0000
     1.0000   1.0000   1.0000   1.0000   1.0000   1.0000   1.0000   1.0000
     1.0000   1.0000   1.0000   1.0000   1.0000   1.0000   1.0000   1.0000
     1.0000   1.0000   1.0000   1.0000   1.0000   1.0000   1.0000   1.0000
     1.0000   1.0000   1.0000   1.0000   1.0000   1.0000   1.0000   1.0000
     1.0000   1.0000   1.0000   1.0000   1.0000   1.0000   1.0000   1.0000
     1.0000   1.0000   1.0000   1.0000   1.0000   1.0000   1.0000   1.0000
     1.0000   1.0000   1.0000   1.0000   1.0000   1.0000   1.0000   1.0000
     1.0000   1.0000   1.0000   1.0000   1.0000   1.0000   1.0000   1.0000
     1.0000   1.0000   1.0000   1.0000   1.0000   1.0000   1.0000   1.0000
     1.0000   1.0000   1.0000   1.0000   1.0000   1.0000   1.0000   1.0000
     1.0000   1.0000   1.0000   1.0000   1.0000   1.0000   1.0000   1.0000
     1.0000   1.0000   1.0000   1.0000   1.0000   1.0000   1.0000   1.0000
     1.0000   1.0000   1.0000   1.0000   1.0000   1.0000   1.0000   1.0000
     1.0000   1.0000   1.0000   1.0000   1.0000   1.0000   1.0000   1.0000
     1.0000   1.0000   1.0000   1.0000   1.0000   1.0000   1.0000   1.0000
     1.0000   1.0000   1.0000   1.0000   1.0000   1.0000   1.0000   1.0000
     1.0000   1.0000   1.0000   1.0000   1.0000   1.0000   1.0000   1.0000
     1.0000   1.0000   1.0000   1.0000   1.0000   1.0000   1.0000   1.0000
     1.0000   1.0000   1.0000   1.0000   1.0000   1.0000   1.0000   1.0000
     1.0000   1.0000   1.0000   1.0000   1.0000   1.0000   1.0000   1.0000
     1.0000   1.0000   1.0000   1.0000   1.0000   1.0000   1.0000   1.0000
     1.0000   1.0000   1.0000   1.0000   1.0000   1.0000   1.0000   1.0000
     1.0000   1.0000   1.0000   1.0000   1.0000   1.0000   1.0000   1.0000
     1.0000   1.0000   1.0000   1.0000   1.0000   1.0000   1.0000   1.0000
     1.0000   1.0000   1.0000   1.0000   1.0000   1.0000   1.0000   1.0000
     1.0000   0.0039   0.0039   0.0039   0.0000   0.0000   0.0000   0.0000
     0.0000   0.0000   0.0000   0.0000   0.0000   0.0000   0.0000   0.0000
     0.0000   0.0000   0.0000   0.0000   0.0000   0.0000   0.0000   0.0000
     0.0000   0.0000   0.0000   0.0000   0.0000   0.0000   0.0000   0.0000
     0.0000   0.0000   0.0000   0.0000   0.0000   0.0000   0.0000   0.0000
     0.0000   0.0000   0.0000   0.0000   0.0000   0.0000   0.0000   0.0000
     0.0000   0.0000   0.0000   0.0000   0.0000   0.0000   0.0000   0.0000
     0.0000   0.0000   0.0000   0.0000   0.0000   0.0000

     the Fermi energy is     7.2251 ev

!    total energy              =  -10109.18654673 Ry
     total all-electron energy =   -139949.162219 Ry
     estimated scf accuracy    <          5.7E-09 Ry
     smearing contrib. (-TS)   =      -0.00030151 Ry
     internal energy E=F+TS    =  -10109.18624522 Ry

     The total energy is F=E-TS. E is the sum of the following terms:
     one-electron contribution =   -3000.83957193 Ry
     hartree contribution      =    2076.07300108 Ry
     xc contribution           =   -1662.50835140 Ry
     ewald contribution        =   -2996.51791516 Ry
     one-center paw contrib.   =   -4525.39340781 Ry
      -> PAW hartree energy AE =     123.35322277 Ry
      -> PAW hartree energy PS =    -122.71160434 Ry
      -> PAW xc energy AE      =    -143.21581962 Ry
      -> PAW xc energy PS      =      47.15426058 Ry
      -> total E_H with PAW    =    2076.71461952 Ry
      -> total E_XC with PAW   =   -1758.56991044 Ry

     total magnetization       =     1.00 Bohr mag/cell
     absolute magnetization    =     1.06 Bohr mag/cell

     convergence has been achieved in  15 iterations

     Writing all to output data dir ./out/Ni_qn1.save/

     General routines

     Parallel routines

     PAW routines

   This run was terminated on:  14:36:43  28Jun2024

   JOB DONE.