     Program PWSCF v.7.2 starts on 29Jun2024 at  1:58:44

     Reading input from 1.Co_in_ZnS.scf.qn1.in

     Current dimensions of program PWSCF are:
     Max number of different atomic species (ntypx) = 10
     Max number of k-points (npk) =  40000
     Max angular momentum in pseudopotentials (lmaxx) =  4
     file S.pbe-n-kjpaw_psl.1.0.0.UPF: wavefunction(s)  3S 3P renormalized
     file Zn.pbe-dnl-kjpaw_psl.1.0.0.UPF: wavefunction(s)  4S 3D renormalized
     file Co.pbe-spn-kjpaw_psl.0.3.1.UPF: wavefunction(s)  3P 3D renormalized

     K-points division:     npool     =       5
     R & G space division:  proc/nbgrp/npool/nimage =     112
     Subspace diagonalization in iterative solution of the eigenvalue problem:
     one sub-group per band group will be used

     Using Slab Decomposition

     bravais-lattice index     =            1
     lattice parameter (alat)  =      20.5686  a.u.
     unit-cell volume          =    8701.8677 (a.u.)^3
     number of atoms/cell      =           64
     number of atomic types    =            3
     number of electrons       =       582.00
     number of Kohn-Sham states=          349
     kinetic-energy cutoff     =     150.0000  Ry
     charge density cutoff     =     600.0000  Ry
     scf convergence threshold =      1.0E-08
     mixing beta               =       0.7000
     number of iterations used =            8  plain     mixing
     Exchange-correlation= SLA  PW   PBX  PBC
                           (   1   4   3   4   0   0   0)

     celldm(1)=  20.568573  celldm(2)=   0.000000  celldm(3)=   0.000000
     celldm(4)=   0.000000  celldm(5)=   0.000000  celldm(6)=   0.000000

     crystal axes: (cart. coord. in units of alat)
               a(1) = (   1.000000   0.000000   0.000000 )
               a(2) = (   0.000000   1.000000   0.000000 )
               a(3) = (   0.000000   0.000000   1.000000 )

     reciprocal axes: (cart. coord. in units 2 pi/alat)
               b(1) = (  1.000000  0.000000  0.000000 )
               b(2) = (  0.000000  1.000000  0.000000 )
               b(3) = (  0.000000  0.000000  1.000000 )

     PseudoPot. # 1 for S  read from file:
     /arf/home/amuhaymin/pseudo/S.pbe-n-kjpaw_psl.1.0.0.UPF
     MD5 check sum: fb45dfebcf3e72a4e1bd4a866ec2e262
     Pseudo is Projector augmented-wave + core cor, Zval =  6.0
     Generated using &quot;atomic&quot; code by A. Dal Corso  v.6.3
     Shape of augmentation charge: PSQ
     Using radial grid of 1151 points,  6 beta functions with:
                l(1) =   0
                l(2) =   0
                l(3) =   1
                l(4) =   1
                l(5) =   2
                l(6) =   2
     Q(r) pseudized with 0 coefficients

     PseudoPot. # 2 for Zn read from file:
     /arf/home/amuhaymin/pseudo/Zn.pbe-dnl-kjpaw_psl.1.0.0.UPF
     MD5 check sum: c608214d9520ac179f507641260889e3
     Pseudo is Projector augmented-wave + core cor, Zval = 12.0
     Generated using &quot;atomic&quot; code by A. Dal Corso  v.6.2.2
     Shape of augmentation charge: PSQ
     Using radial grid of 1201 points,  6 beta functions with:
                l(1) =   0
                l(2) =   0
                l(3) =   1
                l(4) =   1
                l(5) =   2
                l(6) =   2
     Q(r) pseudized with 0 coefficients

     PseudoPot. # 3 for Co read from file:
     /arf/home/amuhaymin/pseudo/Co.pbe-spn-kjpaw_psl.0.3.1.UPF
     MD5 check sum: b0a1ad65bf214e88c1f3d33b20c7d919
     Pseudo is Projector augmented-wave + core cor, Zval = 17.0
     Generated using &quot;atomic&quot; code by A. Dal Corso  v.6.2.2
     Shape of augmentation charge: PSQ
     Using radial grid of 1193 points,  6 beta functions with:
                l(1) =   0
                l(2) =   0
                l(3) =   1
                l(4) =   1
                l(5) =   2
                l(6) =   2
     Q(r) pseudized with 0 coefficients

     atomic species   valence    mass     pseudopotential
        S              6.00    32.06500     S ( 1.00)
        Zn            12.00    65.38000     Zn( 1.00)
        Co            17.00    63.54600     Co( 1.00)

     Starting magnetic structure
     atomic species   magnetization
        S            0.000
        Zn           0.000
        Co           0.118

     24 Sym. Ops. (no inversion) found

                                    s                        frac. trans.

      isym =  1     identity

 cryst.   s( 1) = (     1          0          0      )
                  (     0          1          0      )
                  (     0          0          1      )

 cart.    s( 1) = (  1.0000000  0.0000000  0.0000000 )
                  (  0.0000000  1.0000000  0.0000000 )
                  (  0.0000000  0.0000000  1.0000000 )

      isym =  2     180 deg rotation - cart. axis [0,0,1]

[...]

 cryst.   s( 9) = (     0          1          0      )
                  (     0          0          1      )
                  (     1          0          0      )

 cart.    s( 9) = (  0.0000000  0.0000000  1.0000000 )
                  (  1.0000000  0.0000000  0.0000000 )
                  (  0.0000000  1.0000000  0.0000000 )

[...]

 cryst.   s(10) = (     0         -1          0      )
                  (     0          0         -1      )
                  (     1          0          0      )

 cart.    s(10) = (  0.0000000  0.0000000  1.0000000 )
                  ( -1.0000000  0.0000000  0.0000000 )
                  (  0.0000000 -1.0000000  0.0000000 )

[...]

      isym = 12     120 deg rotation - cart. axis [-1,-1,1]

[...]

      isym = 13     inv. 180 deg rotation - cart. axis [1,1,0]

[...]

      isym = 24     inv.  90 deg rotation - cart. axis [1,0,0]

 cryst.   s(24) = (    -1          0          0      )
                  (     0          0         -1      )
                  (     0          1          0      )

 cart.    s(24) = ( -1.0000000  0.0000000  0.0000000 )
                  (  0.0000000  0.0000000  1.0000000 )
                  (  0.0000000 -1.0000000  0.0000000 )

     point group T_d (-43m)
     there are  5 classes
     the character table:

       E     8C3   3C2   6S4   6s_d
A_1    1.00  1.00  1.00  1.00  1.00
A_2    1.00  1.00  1.00 -1.00 -1.00
E      2.00 -1.00  2.00  0.00  0.00
T_1    3.00  0.00 -1.00  1.00 -1.00
T_2    3.00  0.00 -1.00 -1.00  1.00

     the symmetry operations in each class and the name of the first element:

     E        1
          identity
     8C3      5    7    8    6   12    9   10   11
          120 deg rotation - cart. axis [-1,-1,-1]
     3C2      2    3    4
          180 deg rotation - cart. axis [0,0,1]
     6S4     15   16   20   19   23   24
          inv.  90 deg rotation - cart. axis [0,0,-1]
     6s_d    13   14   17   18   21   22
          inv. 180 deg rotation - cart. axis [1,1,0]

   Cartesian axes

     site n.     atom                  positions (alat units)
         1           Zn  tau(   1) = (   0.0000000   0.0000000   0.0000000  )
         2           Zn  tau(   2) = (   0.0000000   0.2500000   0.2500000  )
         3           Zn  tau(   3) = (   0.2500000   0.0000000   0.2500000  )
         4           Zn  tau(   4) = (   0.2500000   0.2500000   0.0000000  )
         5           S   tau(   5) = (   0.1250000   0.3750000   0.3750000  )
         6           S   tau(   6) = (   0.1250000   0.1250000   0.1250000  )
         7           S   tau(   7) = (   0.3750000   0.3750000   0.1250000  )
         8           S   tau(   8) = (   0.3750000   0.1250000   0.3750000  )
         9           Zn  tau(   9) = (   0.0000000   0.0000000   0.5000000  )
        10           Zn  tau(  10) = (   0.0000000   0.2500000   0.7500000  )
        11           Zn  tau(  11) = (   0.2500000   0.0000000   0.7500000  )
        12           Zn  tau(  12) = (   0.2500000   0.2500000   0.5000000  )
        13           S   tau(  13) = (   0.1250000   0.3750000   0.8750000  )
        14           S   tau(  14) = (   0.1250000   0.1250000   0.6250000  )
        15           S   tau(  15) = (   0.3750000   0.3750000   0.6250000  )
        16           S   tau(  16) = (   0.3750000   0.1250000   0.8750000  )
        17           Zn  tau(  17) = (   0.0000000   0.5000000   0.0000000  )
        18           Zn  tau(  18) = (   0.0000000   0.7500000   0.2500000  )
        19           Zn  tau(  19) = (   0.2500000   0.5000000   0.2500000  )
        20           Zn  tau(  20) = (   0.2500000   0.7500000   0.0000000  )
        21           S   tau(  21) = (   0.1250000   0.8750000   0.3750000  )
        22           S   tau(  22) = (   0.1250000   0.6250000   0.1250000  )
        23           S   tau(  23) = (   0.3750000   0.8750000   0.1250000  )
        24           S   tau(  24) = (   0.3750000   0.6250000   0.3750000  )
        25           Zn  tau(  25) = (   0.0000000   0.5000000   0.5000000  )
        26           Zn  tau(  26) = (   0.0000000   0.7500000   0.7500000  )
        27           Zn  tau(  27) = (   0.2500000   0.5000000   0.7500000  )
        28           Zn  tau(  28) = (   0.2500000   0.7500000   0.5000000  )
        29           S   tau(  29) = (   0.1250000   0.8750000   0.8750000  )
        30           S   tau(  30) = (   0.1250000   0.6250000   0.6250000  )
        31           S   tau(  31) = (   0.3750000   0.8750000   0.6250000  )
        32           S   tau(  32) = (   0.3750000   0.6250000   0.8750000  )
        33           Zn  tau(  33) = (   0.5000000   0.0000000   0.0000000  )
        34           Zn  tau(  34) = (   0.5000000   0.2500000   0.2500000  )
        35           Zn  tau(  35) = (   0.7500000   0.0000000   0.2500000  )
        36           Zn  tau(  36) = (   0.7500000   0.2500000   0.0000000  )
        37           S   tau(  37) = (   0.6250000   0.3750000   0.3750000  )
        38           S   tau(  38) = (   0.6250000   0.1250000   0.1250000  )
        39           S   tau(  39) = (   0.8750000   0.3750000   0.1250000  )
        40           S   tau(  40) = (   0.8750000   0.1250000   0.3750000  )
        41           Zn  tau(  41) = (   0.5000000   0.0000000   0.5000000  )
        42           Zn  tau(  42) = (   0.5000000   0.2500000   0.7500000  )
        43           Zn  tau(  43) = (   0.7500000   0.0000000   0.7500000  )
        44           Zn  tau(  44) = (   0.7500000   0.2500000   0.5000000  )
        45           S   tau(  45) = (   0.6250000   0.3750000   0.8750000  )
        46           S   tau(  46) = (   0.6250000   0.1250000   0.6250000  )
        47           S   tau(  47) = (   0.8750000   0.3750000   0.6250000  )
        48           S   tau(  48) = (   0.8750000   0.1250000   0.8750000  )
        49           Zn  tau(  49) = (   0.5000000   0.5000000   0.0000000  )
        50           Zn  tau(  50) = (   0.5000000   0.7500000   0.2500000  )
        51           Zn  tau(  51) = (   0.7500000   0.5000000   0.2500000  )
        52           Zn  tau(  52) = (   0.7500000   0.7500000   0.0000000  )
        53           S   tau(  53) = (   0.6250000   0.8750000   0.3750000  )
        54           S   tau(  54) = (   0.6250000   0.6250000   0.1250000  )
        55           S   tau(  55) = (   0.8750000   0.8750000   0.1250000  )
[...]
     atom  31 (R=0.089)  charge=  3.9985  magn= -0.0000
     atom  32 (R=0.089)  charge=  3.9985  magn= -0.0000
     atom  33 (R=0.089)  charge= 10.1653  magn= -0.0008
     atom  34 (R=0.089)  charge= 10.1646  magn=  0.0007
     atom  35 (R=0.089)  charge= 10.1638  magn= -0.0002
     atom  36 (R=0.089)  charge= 10.1638  magn= -0.0002
     atom  37 (R=0.089)  charge=  3.9875  magn=  0.0289
     atom  38 (R=0.089)  charge=  3.9992  magn=  0.0013
     atom  39 (R=0.089)  charge=  3.9992  magn=  0.0013
     atom  40 (R=0.089)  charge=  3.9992  magn=  0.0013
     atom  41 (R=0.089)  charge= 10.1633  magn=  0.0004
     atom  42 (R=0.089)  charge= 10.1646  magn=  0.0007
     atom  43 (R=0.089)  charge= 10.1638  magn= -0.0002
     atom  44 (R=0.089)  charge= 10.1646  magn=  0.0007
     atom  45 (R=0.089)  charge=  3.9985  magn= -0.0000
     atom  46 (R=0.089)  charge=  3.9985  magn= -0.0000
     atom  47 (R=0.089)  charge=  3.9985  magn= -0.0000
     atom  48 (R=0.089)  charge=  3.9991  magn=  0.0000
     atom  49 (R=0.089)  charge= 10.1633  magn=  0.0004
     atom  50 (R=0.089)  charge= 10.1646  magn=  0.0007
     atom  51 (R=0.089)  charge= 10.1646  magn=  0.0007
     atom  52 (R=0.089)  charge= 10.1638  magn= -0.0002
     atom  53 (R=0.089)  charge=  3.9985  magn= -0.0000
     atom  54 (R=0.089)  charge=  3.9985  magn= -0.0000
     atom  55 (R=0.089)  charge=  3.9991  magn=  0.0000
     atom  56 (R=0.089)  charge=  3.9985  magn= -0.0000
     atom  57 (R=0.089)  charge= 15.1944  magn=  1.8881
     atom  58 (R=0.089)  charge= 10.1646  magn=  0.0007
     atom  59 (R=0.089)  charge= 10.1646  magn=  0.0007
     atom  60 (R=0.089)  charge= 10.1646  magn=  0.0007
     atom  61 (R=0.089)  charge=  3.9992  magn=  0.0013
     atom  62 (R=0.089)  charge=  3.9875  magn=  0.0289
     atom  63 (R=0.089)  charge=  3.9992  magn=  0.0013
     atom  64 (R=0.089)  charge=  3.9992  magn=  0.0013

     End of self-consistent calculation

 ------ SPIN UP ------------

          k = 0.0000 0.0000 0.0000 (269825 PWs)   bands (ev):

   -88.1975 -51.4993 -51.4993 -51.4993  -7.4605  -6.9394  -6.9394  -6.9257
    -6.9257  -6.9257  -6.8802  -6.6301  -6.6301  -6.6301  -6.6206  -6.6149
    -6.6149  -6.6146  -6.6146  -6.6146  -6.6131  -6.6131  -6.6131  -6.4876
    -6.4876  -6.4876  -6.3109  -6.3109  -6.3109  -6.2841  -6.2841  -6.2841
    -6.2765  -6.0407  -6.0407  -6.0407  -0.7401  -0.7401  -0.7401  -0.7366
    -0.7366  -0.7328  -0.6927  -0.6927  -0.6736  -0.6736  -0.6736  -0.6724
    -0.6125  -0.6125  -0.6125  -0.6100  -0.6100  -0.5977  -0.5977  -0.5977
    -0.5935  -0.5935  -0.5935  -0.5765  -0.5765  -0.5765  -0.5739  -0.5701
    -0.5701  -0.5701  -0.5589  -0.5589  -0.5530  -0.5530  -0.5530  -0.5527
    -0.5491  -0.5491  -0.5491  -0.5441  -0.5441  -0.5441  -0.5436  -0.5436
    -0.5436  -0.5174  -0.5174  -0.5152  -0.5152  -0.5152  -0.5071  -0.5022
    -0.5022  -0.5022  -0.4642  -0.4642  -0.4642  -0.4359  -0.4359  -0.4359
    -0.4331  -0.4331  -0.4143  -0.4143  -0.4143  -0.3951  -0.3951  -0.3951
    -0.3893  -0.3893  -0.3893  -0.3875  -0.3875  -0.3723  -0.3723  -0.3723
    -0.3590  -0.3546  -0.3546  -0.3546  -0.3075  -0.3075  -0.3075  -0.2871
    -0.2871  -0.2755  -0.2755  -0.2755  -0.2745  -0.2745  -0.2745  -0.2612
    -0.2612  -0.2464  -0.2455  -0.2455  -0.2455  -0.2410  -0.2345  -0.2345
    -0.2312  -0.2312  -0.2312  -0.2175  -0.2158  -0.2158  -0.2125  -0.1986
    -0.1986  -0.1986  -0.1974  -0.1974  -0.1974  -0.1965  -0.1965  -0.1925
    -0.1687  -0.1687  -0.1687  -0.1666  -0.1666  -0.1425  -0.1411  -0.1411
    -0.1406  -0.1406  -0.1406  -0.1149  -0.1149  -0.1149  -0.1143  -0.1143
    -0.1143  -0.1078  -0.1078  -0.1078  -0.1016  -0.1016  -0.0818  -0.0818
    -0.0818  -0.0783  -0.0097  -0.0097  -0.0097   0.0113   0.0113   0.0113
     0.0251   0.1556   0.1556   0.1556   0.1922   0.1922   0.1922   0.3917
     0.3917   0.3917   0.4260   1.0171   1.0202   1.0202   1.0560   1.0560
     1.0560   1.0670   1.0670   1.2823   1.5810   1.5810   1.5810   1.6477
     1.6477   1.6684   1.6684   1.6684   1.6858   1.6858   1.6858   2.0967
     2.8557   2.8557   2.8557   2.8717   2.8717   2.8867   2.8867   2.8867
     2.8929   2.8961   2.8961   2.8961   2.9339   2.9339   2.9339   2.9871
     2.9871   3.0653   3.0653   3.0653   3.0723   3.0777   3.0777   3.1040
     3.1040   3.1040   3.1915   3.1915   3.1915   3.3670   3.4081   3.4081
     3.4081   3.4214   3.4214   3.4214   4.0182   4.0182   4.0182   4.3359
     4.3359   4.3359   4.3539   4.3539   4.3539   4.4041   4.4041   4.4041
     4.5054   4.5054   4.5054   4.5812   4.5812   4.6454   4.6454   4.6454
     4.6510   4.6510   4.6510   4.6542   4.6600   4.6600   4.6600   4.6713
     4.6713   4.7810   4.7810   4.7810   5.3967   5.3967   5.3967   6.1058
     6.1058   6.3087   6.3087   6.3087   7.5778   8.8067   8.8067   8.8067
     8.8736   9.0161   9.0161   9.0161   9.6289   9.6289   9.6360   9.9786
     9.9786   9.9786   9.9813   9.9813  10.0124  10.1139  10.1139  10.1151
    10.1151  10.1151  10.1292  10.3089  10.3089  10.3089  10.3097  10.3097
    10.3150  10.3150  10.3150  10.3699  10.3699  10.3699  10.8426  11.2197
    11.2197  11.2197  11.2919  11.2919  11.2919  11.4718  11.4718  11.4773
    11.4773  11.4773  11.9142  11.9461  11.9461  11.9461  12.1623  12.1624
    12.1624  12.1706  12.1712  12.2259  12.2271

     occupation numbers
     1.0000   1.0000   1.0000   1.0000   1.0000   1.0000   1.0000   1.0000
     1.0000   1.0000   1.0000   1.0000   1.0000   1.0000   1.0000   1.0000
     1.0000   1.0000   1.0000   1.0000   1.0000   1.0000   1.0000   1.0000
     1.0000   1.0000   1.0000   1.0000   1.0000   1.0000   1.0000   1.0000
     1.0000   1.0000   1.0000   1.0000   1.0000   1.0000   1.0000   1.0000
     1.0000   1.0000   1.0000   1.0000   1.0000   1.0000   1.0000   1.0000
     1.0000   1.0000   1.0000   1.0000   1.0000   1.0000   1.0000   1.0000
     1.0000   1.0000   1.0000   1.0000   1.0000   1.0000   1.0000   1.0000
     1.0000   1.0000   1.0000   1.0000   1.0000   1.0000   1.0000   1.0000
     1.0000   1.0000   1.0000   1.0000   1.0000   1.0000   1.0000   1.0000
     1.0000   1.0000   1.0000   1.0000   1.0000   1.0000   1.0000   1.0000
     1.0000   1.0000   1.0000   1.0000   1.0000   1.0000   1.0000   1.0000
     1.0000   1.0000   1.0000   1.0000   1.0000   1.0000   1.0000   1.0000
     1.0000   1.0000   1.0000   1.0000   1.0000   1.0000   1.0000   1.0000
     1.0000   1.0000   1.0000   1.0000   1.0000   1.0000   1.0000   1.0000
     1.0000   1.0000   1.0000   1.0000   1.0000   1.0000   1.0000   1.0000
     1.0000   1.0000   1.0000   1.0000   1.0000   1.0000   1.0000   1.0000
     1.0000   1.0000   1.0000   1.0000   1.0000   1.0000   1.0000   1.0000
     1.0000   1.0000   1.0000   1.0000   1.0000   1.0000   1.0000   1.0000
     1.0000   1.0000   1.0000   1.0000   1.0000   1.0000   1.0000   1.0000
     1.0000   1.0000   1.0000   1.0000   1.0000   1.0000   1.0000   1.0000
     1.0000   1.0000   1.0000   1.0000   1.0000   1.0000   1.0000   1.0000
     1.0000   1.0000   1.0000   1.0000   1.0000   1.0000   1.0000   1.0000
     1.0000   1.0000   1.0000   1.0000   1.0000   1.0000   1.0000   1.0000
     1.0000   1.0000   1.0000   1.0000   1.0000   1.0000   1.0000   1.0000
     1.0000   1.0000   1.0000   1.0000   1.0000   1.0000   1.0000   1.0000
     1.0000   1.0000   1.0000   1.0000   1.0000   1.0000   1.0000   1.0000
     1.0000   1.0000   1.0000   1.0000   1.0000   1.0000   1.0000   1.0000
     1.0000   1.0000   1.0000   1.0000   1.0000   1.0000   1.0000   1.0000
     1.0000   1.0000   1.0000   1.0000   1.0000   1.0000   1.0000   1.0000
     1.0000   1.0000   1.0000   1.0000   1.0000   1.0000   1.0000   1.0000
     1.0000   1.0000   1.0000   1.0000   1.0000   1.0000   1.0000   1.0000
     1.0000   1.0000   1.0000   1.0000   1.0000   1.0000   1.0000   1.0000
     1.0000   1.0000   1.0000   1.0000   1.0000   1.0000   1.0000   1.0000
     1.0000   1.0000   1.0000   1.0000   1.0000   1.0000   1.0000   1.0000
     1.0000   1.0000   1.0000   1.0000   1.0000   1.0000   1.0000   1.0000
     1.0000   1.0000   1.0000   1.0000   1.0000   0.0000   0.0000   0.0000
     0.0000   0.0000   0.0000   0.0000   0.0000   0.0000   0.0000   0.0000
     0.0000   0.0000   0.0000   0.0000   0.0000   0.0000   0.0000   0.0000
     0.0000   0.0000   0.0000   0.0000   0.0000   0.0000   0.0000   0.0000
     0.0000   0.0000   0.0000   0.0000   0.0000   0.0000   0.0000   0.0000
     0.0000   0.0000   0.0000   0.0000   0.0000   0.0000   0.0000   0.0000
     0.0000   0.0000   0.0000   0.0000   0.0000   0.0000   0.0000   0.0000
     0.0000   0.0000   0.0000   0.0000   0.0000

[...]

          k =-0.5000-0.5000-0.5000 (269968 PWs)   bands (ev):

[...]

 ------ SPIN DOWN ----------

[...]

          k = 0.2500-0.5000-0.5000 (269956 PWs)   bands (ev):

[...]

          k =-0.5000-0.5000-0.5000 (269968 PWs)   bands (ev):

   -85.9707 -49.3258 -49.3258 -49.3258  -7.1220  -7.0855  -7.0855  -7.0855
    -7.0410  -7.0410  -7.0410  -6.8589  -6.5095  -6.5095  -6.5095  -6.4774
    -6.4572  -6.4572  -6.4567  -6.4567  -6.4567  -6.4542  -6.4542  -6.4542
    -6.4460  -6.4460  -6.4460  -6.4439  -6.4439  -6.4439  -6.4423  -6.4423
    -6.1538  -6.0465  -6.0465  -6.0465  -0.6851  -0.6851  -0.6851  -0.6609
    -0.6609  -0.6528  -0.6427  -0.6427  -0.6427  -0.6421  -0.6421  -0.6421
    -0.6406  -0.6298  -0.6298  -0.6298  -0.6271  -0.6271  -0.6271  -0.6265
    -0.6265  -0.6248  -0.6248  -0.6248  -0.6127  -0.6091  -0.6091  -0.6091
    -0.6023  -0.6023  -0.5903  -0.5903  -0.5903  -0.5877  -0.5877  -0.5877
    -0.5814  -0.5814  -0.5814  -0.5783  -0.5783  -0.5783  -0.5286  -0.5147
    -0.5147  -0.5012  -0.4921  -0.4921  -0.4921  -0.4764  -0.4764  -0.4764
    -0.4763  -0.4763  -0.4763  -0.4696  -0.4696  -0.4696  -0.4695  -0.4695
    -0.4467  -0.4467  -0.4467  -0.4187  -0.4187  -0.4187  -0.4028  -0.4016
    -0.4016  -0.3717  -0.3717  -0.3717  -0.3529  -0.3529  -0.3485  -0.3485
    -0.3485  -0.3457  -0.3457  -0.3457  -0.3394  -0.3394  -0.3394  -0.3351
    -0.3351  -0.3351  -0.3303  -0.3198  -0.3198  -0.3198  -0.2771  -0.2745
    -0.2745  -0.2554  -0.2554  -0.2283  -0.2283  -0.2283  -0.2135  -0.2135
    -0.2135  -0.2133  -0.2133  -0.2131  -0.2131  -0.2131  -0.1897  -0.1897
    -0.1897  -0.1890  -0.1802  -0.1802  -0.1802  -0.1677  -0.1677  -0.1677
    -0.1475  -0.1475  -0.1475  -0.1310  -0.1310  -0.1310  -0.1114  -0.1114
    -0.1114  -0.1029  -0.1029  -0.0965  -0.0965  -0.0965  -0.0866  -0.0697
    -0.0697  -0.0697  -0.0621  -0.0607  -0.0607  -0.0607  -0.0422  -0.0422
    -0.0375  -0.0375  -0.0375  -0.0226  -0.0226  -0.0207  -0.0207  -0.0207
    -0.0068  -0.0068  -0.0068  -0.0055  -0.0055  -0.0055   0.0548   1.0956
     1.0956   1.0956   1.1003   1.1243   1.1243   1.1243   1.1247   1.1247
     1.1292   1.1292   1.1292   1.1403   1.1403   1.1403   1.1674   1.1674
     1.2064   1.2064   1.2064   1.2495   1.2495   1.2495   1.8739   2.7102
     2.7102   2.7102   2.7363   2.7646   2.7646   2.7646   2.9342   3.1662
     3.1662   3.1662   3.1782   3.1782   3.1782   3.1786   3.1786   3.1903
     3.1983   3.1983   3.1983   3.2112   3.2112   3.2112   3.2120   3.2120
     3.2363   3.2363   3.2363   3.3525   3.3525   3.3525   3.5422   3.9382
     3.9382   3.9382   3.9620   3.9620   3.9620   3.9661   3.9716   3.9716
     3.9779   3.9779   3.9779   3.9912   3.9912   3.9967   3.9967   3.9967
     4.0039   4.1136   4.1136   4.1136   4.1205   4.1205   4.1205   4.9510
     4.9510   4.9510   5.0613   5.0613   5.0719   5.0719   5.0719   5.0756
     5.0756   5.0813   5.0813   5.0813   5.1220   5.1220   5.1220   7.0082
     7.0082   8.0898   8.0898   8.0898   8.9046   8.9340   8.9340   8.9340
     8.9522   8.9522   8.9522   9.1709   9.8093   9.8093   9.8093   9.8223
     9.8223   9.8223   9.8278   9.8278   9.8280   9.8375   9.8375   9.8375
     9.8604   9.8604   9.8604   9.8673   9.8673   9.8673  10.0513  10.0513
    10.0954  10.0954  10.0954  10.4138  11.4179  11.4179  11.4179  11.4259
    11.4259  11.4259  11.4308  11.4366  11.4366  11.4420  11.4420  11.4420
    11.4693  11.4693  11.4693  11.4773  11.4773  11.5351  11.5351  11.5351
    11.6958  11.6958  11.6958  12.1756  12.4043

     occupation numbers
     1.0000   1.0000   1.0000   1.0000   1.0000   1.0000   1.0000   1.0000
     1.0000   1.0000   1.0000   1.0000   1.0000   1.0000   1.0000   1.0000
     1.0000   1.0000   1.0000   1.0000   1.0000   1.0000   1.0000   1.0000
     1.0000   1.0000   1.0000   1.0000   1.0000   1.0000   1.0000   1.0000
     1.0000   1.0000   1.0000   1.0000   1.0000   1.0000   1.0000   1.0000
     1.0000   1.0000   1.0000   1.0000   1.0000   1.0000   1.0000   1.0000
     1.0000   1.0000   1.0000   1.0000   1.0000   1.0000   1.0000   1.0000
     1.0000   1.0000   1.0000   1.0000   1.0000   1.0000   1.0000   1.0000
     1.0000   1.0000   1.0000   1.0000   1.0000   1.0000   1.0000   1.0000
     1.0000   1.0000   1.0000   1.0000   1.0000   1.0000   1.0000   1.0000
     1.0000   1.0000   1.0000   1.0000   1.0000   1.0000   1.0000   1.0000
     1.0000   1.0000   1.0000   1.0000   1.0000   1.0000   1.0000   1.0000
     1.0000   1.0000   1.0000   1.0000   1.0000   1.0000   1.0000   1.0000
     1.0000   1.0000   1.0000   1.0000   1.0000   1.0000   1.0000   1.0000
     1.0000   1.0000   1.0000   1.0000   1.0000   1.0000   1.0000   1.0000
     1.0000   1.0000   1.0000   1.0000   1.0000   1.0000   1.0000   1.0000
     1.0000   1.0000   1.0000   1.0000   1.0000   1.0000   1.0000   1.0000
     1.0000   1.0000   1.0000   1.0000   1.0000   1.0000   1.0000   1.0000
     1.0000   1.0000   1.0000   1.0000   1.0000   1.0000   1.0000   1.0000
     1.0000   1.0000   1.0000   1.0000   1.0000   1.0000   1.0000   1.0000
     1.0000   1.0000   1.0000   1.0000   1.0000   1.0000   1.0000   1.0000
     1.0000   1.0000   1.0000   1.0000   1.0000   1.0000   1.0000   1.0000
     1.0000   1.0000   1.0000   1.0000   1.0000   1.0000   1.0000   1.0000
     1.0000   1.0000   1.0000   1.0000   1.0000   1.0000   1.0000   1.0000
     1.0000   1.0000   1.0000   1.0000   1.0000   1.0000   1.0000   1.0000
     1.0000   1.0000   1.0000   1.0000   1.0000   1.0000   1.0000   1.0000
     1.0000   1.0000   1.0000   1.0000   1.0000   1.0000   1.0000   1.0000
     1.0000   1.0000   1.0000   1.0000   1.0000   1.0000   1.0000   1.0000
     1.0000   1.0000   1.0000   1.0000   1.0000   1.0000   1.0000   1.0000
     1.0000   1.0000   1.0000   1.0000   1.0000   1.0000   1.0000   1.0000
     1.0000   1.0000   1.0000   1.0000   1.0000   1.0000   1.0000   1.0000
     1.0000   1.0000   1.0000   1.0000   1.0000   1.0000   1.0000   1.0000
     1.0000   1.0000   1.0000   1.0000   1.0000   1.0000   1.0000   1.0000
     1.0000   1.0000   1.0000   1.0000   1.0000   1.0000   1.0000   1.0000
     1.0000   1.0000   1.0000   1.0000   1.0000   1.0000   1.0000   1.0000
     1.0000   1.0000   1.0000   1.0000   1.0000   1.0000   1.0000   1.0000
     1.0000   0.0000   0.0000   0.0000   0.0000   0.0000   0.0000   0.0000
     0.0000   0.0000   0.0000   0.0000   0.0000   0.0000   0.0000   0.0000
     0.0000   0.0000   0.0000   0.0000   0.0000   0.0000   0.0000   0.0000
     0.0000   0.0000   0.0000   0.0000   0.0000   0.0000   0.0000   0.0000
     0.0000   0.0000   0.0000   0.0000   0.0000   0.0000   0.0000   0.0000
     0.0000   0.0000   0.0000   0.0000   0.0000   0.0000   0.0000   0.0000
     0.0000   0.0000   0.0000   0.0000   0.0000   0.0000   0.0000   0.0000
     0.0000   0.0000   0.0000   0.0000   0.0000

     the Fermi energy is     8.0305 ev

!    total energy              =  -10056.71444933 Ry
     total all-electron energy =   -139694.436360 Ry
     estimated scf accuracy    <          4.3E-09 Ry
     smearing contrib. (-TS)   =      -0.00016254 Ry
     internal energy E=F+TS    =  -10056.71428678 Ry

     The total energy is F=E-TS. E is the sum of the following terms:
     one-electron contribution =   -2924.89447549 Ry
     hartree contribution      =    2037.79626531 Ry
     xc contribution           =   -1658.89810933 Ry
     ewald contribution        =   -2988.82110911 Ry
     one-center paw contrib.   =   -4521.89685817 Ry
      -> PAW hartree energy AE =     123.39448087 Ry
      -> PAW hartree energy PS =    -122.75316206 Ry
      -> PAW xc energy AE      =    -143.21849671 Ry
      -> PAW xc energy PS      =      47.15691836 Ry
      -> total E_H with PAW    =    2038.43758412 Ry
      -> total E_XC with PAW   =   -1754.95968767 Ry

     total magnetization       =     2.22 Bohr mag/cell
     absolute magnetization    =     2.35 Bohr mag/cell

     convergence has been achieved in  15 iterations

     Writing all to output data dir ./out/Co_unrlxd_q0.save/

     General routines

     Parallel routines

     PAW routines

   This run was terminated on:   2: 4:57  29Jun2024

   JOB DONE.