     Program PWSCF v.7.2 starts on 22Jul2024 at  7:50:48

     Reading input from 1.Cu_vac_in_ZnS.scf.qn1.unrlxd.U7.in

     Current dimensions of program PWSCF are:
     Max number of different atomic species (ntypx) = 10
     Max number of k-points (npk) =  40000
     Max angular momentum in pseudopotentials (lmaxx) =  4
     file S.pbe-n-kjpaw_psl.1.0.0.UPF: wavefunction(s)  3S 3P renormalized
     file Zn.pbe-dnl-kjpaw_psl.1.0.0.UPF: wavefunction(s)  4S 3D renormalized
     file Cu.pbe-spn-kjpaw_psl.1.0.0.UPF: wavefunction(s)  4S 3P 3D renormalized

     K-points division:     npool     =      13
     R & G space division:  proc/nbgrp/npool/nimage =     112
     Subspace diagonalization in iterative solution of the eigenvalue problem:
     one sub-group per band group will be used

     Using Slab Decomposition

     bravais-lattice index     =            1
     lattice parameter (alat)  =      20.5686  a.u.
     unit-cell volume          =    8701.8437 (a.u.)^3
     number of atoms/cell      =           63
     number of atomic types    =            3
     number of electrons       =       578.00
     number of Kohn-Sham states=          347
     kinetic-energy cutoff     =     150.0000  Ry
     charge density cutoff     =     600.0000  Ry
     scf convergence threshold =      1.0E-08
     mixing beta               =       0.7000
     number of iterations used =            8  plain     mixing
     Exchange-correlation= SLA  PW   PBX  PBC
                           (   1   4   3   4   0   0   0)
     Hubbard projectors: ortho-atomic
     Hubbard parameters of DFT+U (Dudarev formulation) in eV:
     U(Zn-3d) =  7.0000
     U(Cu-3d) =  7.0000

     Internal variables: lda_plus_u = T, lda_plus_u_kind = 0

     celldm(1)=  20.568554  celldm(2)=   0.000000  celldm(3)=   0.000000
     celldm(4)=   0.000000  celldm(5)=   0.000000  celldm(6)=   0.000000

     crystal axes: (cart. coord. in units of alat)
               a(1) = (   1.000000   0.000000   0.000000 )
               a(2) = (   0.000000   1.000000   0.000000 )
               a(3) = (   0.000000   0.000000   1.000000 )

     reciprocal axes: (cart. coord. in units 2 pi/alat)
               b(1) = (  1.000000  0.000000  0.000000 )
               b(2) = (  0.000000  1.000000  0.000000 )
               b(3) = (  0.000000  0.000000  1.000000 )

     PseudoPot. # 1 for S  read from file:
     /arf/home/amuhaymin/pseudo/S.pbe-n-kjpaw_psl.1.0.0.UPF
     MD5 check sum: fb45dfebcf3e72a4e1bd4a866ec2e262
     Pseudo is Projector augmented-wave + core cor, Zval =  6.0
     Generated using &quot;atomic&quot; code by A. Dal Corso  v.6.3
     Shape of augmentation charge: PSQ
     Using radial grid of 1151 points,  6 beta functions with:
                l(1) =   0
                l(2) =   0
                l(3) =   1
                l(4) =   1
                l(5) =   2
                l(6) =   2
     Q(r) pseudized with 0 coefficients

     PseudoPot. # 2 for Zn read from file:
     /arf/home/amuhaymin/pseudo/Zn.pbe-dnl-kjpaw_psl.1.0.0.UPF
     MD5 check sum: c608214d9520ac179f507641260889e3
     Pseudo is Projector augmented-wave + core cor, Zval = 12.0
     Generated using &quot;atomic&quot; code by A. Dal Corso  v.6.2.2
     Shape of augmentation charge: PSQ
     Using radial grid of 1201 points,  6 beta functions with:
                l(1) =   0
                l(2) =   0
                l(3) =   1
                l(4) =   1
                l(5) =   2
                l(6) =   2
     Q(r) pseudized with 0 coefficients

     PseudoPot. # 3 for Cu read from file:
     /arf/home/amuhaymin/pseudo/Cu.pbe-spn-kjpaw_psl.1.0.0.UPF
     MD5 check sum: e7cbaad2f97193e5fe23251a619a52b0
     Pseudo is Projector augmented-wave + core cor, Zval = 19.0
     Generated using &quot;atomic&quot; code by A. Dal Corso  v.6.3
     Shape of augmentation charge: PSQ
     Using radial grid of 1199 points,  6 beta functions with:
                l(1) =   0
                l(2) =   0
                l(3) =   1
                l(4) =   1
                l(5) =   2
                l(6) =   2
     Q(r) pseudized with 0 coefficients

     atomic species   valence    mass     pseudopotential
        S              6.00    32.06500     S ( 1.00)
        Zn            12.00    65.38000     Zn( 1.00)
        Cu            19.00    63.54600     Cu( 1.00)

     Starting magnetic structure
     atomic species   magnetization
        S            0.000
        Zn           0.000
        Cu           0.000

      6 Sym. Ops. (no inversion) found

                                    s                        frac. trans.

      isym =  1     identity

 cryst.   s( 1) = (     1          0          0      )
                  (     0          1          0      )
                  (     0          0          1      )

 cart.    s( 1) = (  1.0000000  0.0000000  0.0000000 )
                  (  0.0000000  1.0000000  0.0000000 )
                  (  0.0000000  0.0000000  1.0000000 )

      isym =  2     120 deg rotation - cart. axis [-1,-1,-1]

[...]

      isym =  3     120 deg rotation - cart. axis [1,1,1]

[...]

      isym =  4     inv. 180 deg rotation - cart. axis [1,-1,0]

[...]

      isym =  6     inv. 180 deg rotation - cart. axis [0,1,-1]

 cryst.   s( 6) = (     1          0          0      )
                  (     0          0          1      )
                  (     0          1          0      )

 cart.    s( 6) = (  1.0000000  0.0000000  0.0000000 )
                  (  0.0000000  0.0000000  1.0000000 )
                  (  0.0000000  1.0000000  0.0000000 )

     point group C_3v (3m)
     there are  3 classes
     the character table:

       E     2C3   3s_v
A_1    1.00  1.00  1.00
A_2    1.00  1.00 -1.00
E      2.00 -1.00  0.00

     the symmetry operations in each class and the name of the first element:

     E        1
          identity
     2C3      2    3
          120 deg rotation - cart. axis [-1,-1,-1]
     3s_v     4    5    6
          inv. 180 deg rotation - cart. axis [1,-1,0]

   Cartesian axes

     site n.     atom                  positions (alat units)
         1           Zn  tau(   1) = (   0.0000000   0.0000000   0.0000000  )
         2           Zn  tau(   2) = (   0.0000000   0.2500000   0.2500000  )
         3           Zn  tau(   3) = (   0.2500000   0.0000000   0.2500000  )
         4           Zn  tau(   4) = (   0.2500000   0.2500000   0.0000000  )
         5           S   tau(   5) = (   0.1250000   0.3750000   0.3750000  )
         6           S   tau(   6) = (   0.1250000   0.1250000   0.1250000  )
         7           S   tau(   7) = (   0.3750000   0.3750000   0.1250000  )
         8           S   tau(   8) = (   0.3750000   0.1250000   0.3750000  )
         9           Zn  tau(   9) = (   0.0000000   0.0000000   0.5000000  )
        10           Zn  tau(  10) = (   0.0000000   0.2500000   0.7500000  )
        11           Zn  tau(  11) = (   0.2500000   0.0000000   0.7500000  )
        12           Zn  tau(  12) = (   0.2500000   0.2500000   0.5000000  )
        13           S   tau(  13) = (   0.1250000   0.3750000   0.8750000  )
        14           S   tau(  14) = (   0.1250000   0.1250000   0.6250000  )
        15           S   tau(  15) = (   0.3750000   0.3750000   0.6250000  )
        16           S   tau(  16) = (   0.3750000   0.1250000   0.8750000  )
        17           Zn  tau(  17) = (   0.0000000   0.5000000   0.0000000  )
        18           Zn  tau(  18) = (   0.0000000   0.7500000   0.2500000  )
        19           Zn  tau(  19) = (   0.2500000   0.5000000   0.2500000  )
        20           Zn  tau(  20) = (   0.2500000   0.7500000   0.0000000  )
        21           S   tau(  21) = (   0.1250000   0.8750000   0.3750000  )
        22           S   tau(  22) = (   0.1250000   0.6250000   0.1250000  )
        23           S   tau(  23) = (   0.3750000   0.8750000   0.1250000  )
        24           S   tau(  24) = (   0.3750000   0.6250000   0.3750000  )
        25           Zn  tau(  25) = (   0.0000000   0.5000000   0.5000000  )
        26           Zn  tau(  26) = (   0.0000000   0.7500000   0.7500000  )
        27           Zn  tau(  27) = (   0.2500000   0.5000000   0.7500000  )
        28           Zn  tau(  28) = (   0.2500000   0.7500000   0.5000000  )
        29           S   tau(  29) = (   0.1250000   0.8750000   0.8750000  )
        30           S   tau(  30) = (   0.1250000   0.6250000   0.6250000  )
        31           S   tau(  31) = (   0.3750000   0.8750000   0.6250000  )
        32           S   tau(  32) = (   0.3750000   0.6250000   0.8750000  )
        33           Zn  tau(  33) = (   0.5000000   0.0000000   0.0000000  )
        34           Zn  tau(  34) = (   0.5000000   0.2500000   0.2500000  )
        35           Zn  tau(  35) = (   0.7500000   0.0000000   0.2500000  )
        36           Zn  tau(  36) = (   0.7500000   0.2500000   0.0000000  )
        37           S   tau(  37) = (   0.6250000   0.3750000   0.3750000  )
        38           S   tau(  38) = (   0.6250000   0.1250000   0.1250000  )
        39           S   tau(  39) = (   0.8750000   0.3750000   0.1250000  )
        40           S   tau(  40) = (   0.8750000   0.1250000   0.3750000  )
        41           Zn  tau(  41) = (   0.5000000   0.0000000   0.5000000  )
        42           Zn  tau(  42) = (   0.5000000   0.2500000   0.7500000  )
        43           Zn  tau(  43) = (   0.7500000   0.0000000   0.7500000  )
        44           Zn  tau(  44) = (   0.7500000   0.2500000   0.5000000  )
        45           S   tau(  45) = (   0.6250000   0.3750000   0.8750000  )
        46           S   tau(  46) = (   0.6250000   0.1250000   0.6250000  )
        47           S   tau(  47) = (   0.8750000   0.3750000   0.6250000  )
        48           S   tau(  48) = (   0.8750000   0.1250000   0.8750000  )
        49           Zn  tau(  49) = (   0.5000000   0.5000000   0.0000000  )
        50           Zn  tau(  50) = (   0.5000000   0.7500000   0.2500000  )
        51           Zn  tau(  51) = (   0.7500000   0.5000000   0.2500000  )
        52           Zn  tau(  52) = (   0.7500000   0.7500000   0.0000000  )
        53           S   tau(  53) = (   0.6250000   0.8750000   0.3750000  )
        54           S   tau(  54) = (   0.6250000   0.6250000   0.1250000  )
        55           S   tau(  55) = (   0.8750000   0.8750000   0.1250000  )
        56           S   tau(  56) = (   0.8750000   0.6250000   0.3750000  )
        57           Cu  tau(  57) = (   0.5000000   0.5000000   0.5000000  )
        58           Zn  tau(  58) = (   0.5000000   0.7500000   0.7500000  )
        59           Zn  tau(  59) = (   0.7500000   0.5000000   0.7500000  )
        60           Zn  tau(  60) = (   0.7500000   0.7500000   0.5000000  )
        61           S   tau(  61) = (   0.6250000   0.8750000   0.8750000  )
        62           S   tau(  62) = (   0.8750000   0.8750000   0.6250000  )
        63           S   tau(  63) = (   0.8750000   0.6250000   0.8750000  )

   Crystallographic axes

     site n.     atom                  positions (cryst. coord.)
         1           Zn  tau(   1) = (  0.0000000  0.0000000  0.0000000  )
[...]
     atom  30 (R=0.089)  charge=  4.0015  magn=  0.0000
     atom  31 (R=0.089)  charge=  3.9982  magn=  0.0000
     atom  32 (R=0.089)  charge=  3.9982  magn=  0.0000
     atom  33 (R=0.089)  charge= 10.1800  magn=  0.0000
     atom  34 (R=0.089)  charge= 10.1778  magn= -0.0000
     atom  35 (R=0.089)  charge= 10.1785  magn=  0.0000
     atom  36 (R=0.089)  charge= 10.1785  magn=  0.0000
     atom  37 (R=0.089)  charge=  3.9827  magn=  0.0000
     atom  38 (R=0.089)  charge=  4.0022  magn= -0.0000
     atom  39 (R=0.089)  charge=  4.0025  magn= -0.0000
     atom  40 (R=0.089)  charge=  4.0025  magn= -0.0000
     atom  41 (R=0.089)  charge= 10.1765  magn= -0.0000
     atom  42 (R=0.089)  charge= 10.1774  magn= -0.0000
     atom  43 (R=0.089)  charge= 10.1771  magn= -0.0000
     atom  44 (R=0.089)  charge= 10.1774  magn= -0.0000
     atom  45 (R=0.089)  charge=  3.9982  magn=  0.0000
     atom  46 (R=0.089)  charge=  4.0015  magn=  0.0000
     atom  47 (R=0.089)  charge=  3.9982  magn=  0.0000
     atom  48 (R=0.089)  charge=  4.0022  magn= -0.0000
     atom  49 (R=0.089)  charge= 10.1765  magn= -0.0000
     atom  50 (R=0.089)  charge= 10.1774  magn= -0.0000
     atom  51 (R=0.089)  charge= 10.1774  magn= -0.0000
     atom  52 (R=0.089)  charge= 10.1771  magn= -0.0000
     atom  53 (R=0.089)  charge=  3.9982  magn=  0.0000
     atom  54 (R=0.089)  charge=  4.0015  magn=  0.0000
     atom  55 (R=0.089)  charge=  4.0022  magn= -0.0000
     atom  56 (R=0.089)  charge=  3.9982  magn=  0.0000
     atom  57 (R=0.089)  charge= 17.4210  magn= -0.0000
     atom  58 (R=0.089)  charge= 10.1412  magn= -0.0000
     atom  59 (R=0.089)  charge= 10.1412  magn= -0.0000
     atom  60 (R=0.089)  charge= 10.1412  magn= -0.0000
     atom  61 (R=0.089)  charge=  3.9992  magn= -0.0000
     atom  62 (R=0.089)  charge=  3.9992  magn= -0.0000
     atom  63 (R=0.089)  charge=  3.9992  magn= -0.0000

     End of self-consistent calculation

 ------ SPIN UP ------------

          k = 0.0000 0.0000 0.0000 (269825 PWs)   bands (ev):

  -103.4467 -60.8905 -60.8651 -60.8651  -7.6361  -7.2183  -7.2183  -7.2120
    -7.2120  -7.2058  -7.1723  -7.0196  -7.0196  -7.0191  -7.0061  -6.9836
    -6.9811  -6.9811  -6.9792  -6.9792  -6.9777  -6.9777  -6.9776  -6.8772
    -6.8772  -6.8588  -6.7980  -6.7958  -6.7958  -6.7604  -6.7575  -6.7575
    -6.4630  -6.3340  -6.3340  -3.8767  -3.8755  -3.8755  -3.8365  -3.8357
    -3.8357  -3.8340  -3.8340  -3.8181  -3.8181  -3.8122  -3.8102  -3.8102
    -3.8082  -3.7969  -3.7967  -3.7967  -3.7933  -3.7933  -3.7898  -3.7880
    -3.7880  -3.7806  -3.7788  -3.7788  -3.7764  -3.7720  -3.7696  -3.7696
    -3.7645  -3.7641  -3.7638  -3.7638  -3.7494  -3.7494  -3.7493  -3.7376
    -3.7356  -3.7356  -3.7286  -3.7286  -3.7256  -3.7256  -3.7232  -3.7192
    -3.7192  -3.7146  -3.7108  -3.7108  -3.7031  -3.7010  -3.7010  -3.6963
    -3.6910  -3.6879  -3.6879  -3.6826  -3.6826  -3.6812  -3.6778  -3.6723
    -3.6723  -3.6562  -3.6550  -3.6504  -3.6500  -3.6500  -3.6466  -3.6466
    -3.6395  -3.6395  -3.6375  -3.6335  -3.6335  -3.6302  -3.6302  -3.6299
    -3.6228  -3.6211  -3.6211  -3.6207  -3.6140  -3.6140  -3.6136  -3.6136
    -3.6128  -3.6128  -3.6111  -3.6061  -3.5907  -3.5858  -3.5858  -3.5820
    -3.5820  -3.5702  -3.5683  -3.5683  -3.5683  -3.5514  -3.5514  -3.5460
    -3.5355  -3.5355  -3.5340  -3.5330  -3.5236  -3.5236  -3.5082  -3.5082
    -3.5052  -3.4933  -3.4874  -3.4874  -3.4861  -3.4861  -3.4831  -3.4831
    -3.4820  -3.4678  -3.4653  -3.4653  -3.4612  -3.4454  -3.4454  -3.4222
    -3.4150  -3.4150  -3.4073  -3.4000  -3.3979  -3.3979  -3.2875  -3.2875
    -3.2443  -3.2417  -3.2417  -3.2262  -3.2205  -3.2205  -3.2136  -3.2029
    -3.1980  -3.1980  -3.1433  -3.1433  -3.0953  -3.0409  -3.0188  -3.0188
    -2.9687  -2.9061  -2.9061  -2.8762  -2.8762  -2.8705   0.2152   0.2343
     0.2606   0.2606   0.5883   0.5988   0.5988   0.8090   0.8090   0.8204
     0.8854   0.8854   0.8998   1.0778   1.1594   1.1594   1.2131   1.2131
     1.2560   1.2627   1.2651   1.2651   1.4751   1.4751   1.8493   2.0945
     2.0945   2.2891   2.2891   2.3084   2.4848   2.4979   2.4979   2.5183
     2.5239   2.5239   2.5799   2.6310   2.6310   2.6395   2.6395   2.6696
     2.6729   2.6768   2.6768   2.6946   2.7055   2.7055   2.7765   2.8027
     2.8027   2.9141   2.9487   2.9648   2.9648   3.0092   3.0092   3.1624
     3.1826   3.1855   3.1855   3.2625   3.2625   3.5226   3.5226   3.6984
     3.9964   4.0019   4.0019   4.0257   4.0374   4.0374   4.0959   4.0959
     4.1071   4.1814   4.2290   4.2290   4.2990   4.3020   4.3020   4.3021
     4.3040   4.3040   4.3127   4.3129   4.3129   4.3158   4.3292   4.3292
     4.5081   4.5748   4.5748   4.8865   4.8865   5.1155   5.3510   5.3510
     6.5443   7.7801   8.6057   8.6057   8.6920   8.7507   8.8107   8.8107
     8.9317   8.9317   9.0948   9.4759   9.4787   9.4787   9.5430   9.8314
     9.8314   9.9145   9.9380   9.9380   9.9608   9.9818   9.9818   9.9854
     9.9955   9.9955  10.1540  10.1540  10.1556  10.1773  10.1773  10.2086
    10.2086  10.2340  10.3386  10.6352  10.6352  10.7022  11.0159  11.1115
    11.1115  11.1469  11.1469  11.2848  11.3178  11.3178  11.3314  11.6497
    11.6497  11.6839  11.8161  11.8446  11.8446  11.8453  11.9900  11.9900
    12.0003  12.0056  12.0057

     occupation numbers
     1.0000   1.0000   1.0000   1.0000   1.0000   1.0000   1.0000   1.0000
     1.0000   1.0000   1.0000   1.0000   1.0000   1.0000   1.0000   1.0000
     1.0000   1.0000   1.0000   1.0000   1.0000   1.0000   1.0000   1.0000
     1.0000   1.0000   1.0000   1.0000   1.0000   1.0000   1.0000   1.0000
     1.0000   1.0000   1.0000   1.0000   1.0000   1.0000   1.0000   1.0000
     1.0000   1.0000   1.0000   1.0000   1.0000   1.0000   1.0000   1.0000
     1.0000   1.0000   1.0000   1.0000   1.0000   1.0000   1.0000   1.0000
     1.0000   1.0000   1.0000   1.0000   1.0000   1.0000   1.0000   1.0000
     1.0000   1.0000   1.0000   1.0000   1.0000   1.0000   1.0000   1.0000
     1.0000   1.0000   1.0000   1.0000   1.0000   1.0000   1.0000   1.0000
     1.0000   1.0000   1.0000   1.0000   1.0000   1.0000   1.0000   1.0000
     1.0000   1.0000   1.0000   1.0000   1.0000   1.0000   1.0000   1.0000
     1.0000   1.0000   1.0000   1.0000   1.0000   1.0000   1.0000   1.0000
     1.0000   1.0000   1.0000   1.0000   1.0000   1.0000   1.0000   1.0000
     1.0000   1.0000   1.0000   1.0000   1.0000   1.0000   1.0000   1.0000
     1.0000   1.0000   1.0000   1.0000   1.0000   1.0000   1.0000   1.0000
     1.0000   1.0000   1.0000   1.0000   1.0000   1.0000   1.0000   1.0000
     1.0000   1.0000   1.0000   1.0000   1.0000   1.0000   1.0000   1.0000
     1.0000   1.0000   1.0000   1.0000   1.0000   1.0000   1.0000   1.0000
     1.0000   1.0000   1.0000   1.0000   1.0000   1.0000   1.0000   1.0000
     1.0000   1.0000   1.0000   1.0000   1.0000   1.0000   1.0000   1.0000
     1.0000   1.0000   1.0000   1.0000   1.0000   1.0000   1.0000   1.0000
     1.0000   1.0000   1.0000   1.0000   1.0000   1.0000   1.0000   1.0000
     1.0000   1.0000   1.0000   1.0000   1.0000   1.0000   1.0000   1.0000
     1.0000   1.0000   1.0000   1.0000   1.0000   1.0000   1.0000   1.0000
     1.0000   1.0000   1.0000   1.0000   1.0000   1.0000   1.0000   1.0000
     1.0000   1.0000   1.0000   1.0000   1.0000   1.0000   1.0000   1.0000
     1.0000   1.0000   1.0000   1.0000   1.0000   1.0000   1.0000   1.0000
     1.0000   1.0000   1.0000   1.0000   1.0000   1.0000   1.0000   1.0000
     1.0000   1.0000   1.0000   1.0000   1.0000   1.0000   1.0000   1.0000
     1.0000   1.0000   1.0000   1.0000   1.0000   1.0000   1.0000   1.0000
     1.0000   1.0000   1.0000   1.0000   1.0000   1.0000   1.0000   1.0000
     1.0000   1.0000   1.0000   1.0000   1.0000   1.0000   1.0000   1.0000
     1.0000   1.0000   1.0000   1.0000   1.0000   1.0000   1.0000   1.0000
     1.0000   1.0000   1.0000   1.0000   1.0000   1.0000   1.0000   1.0000
     1.0000   1.0000   1.0000   1.0000   1.0000   1.0000   1.0000   1.0000
     1.0000   0.0000   0.0000   0.0000   0.0000   0.0000   0.0000   0.0000
     0.0000   0.0000   0.0000   0.0000   0.0000   0.0000   0.0000   0.0000
     0.0000   0.0000   0.0000   0.0000   0.0000   0.0000   0.0000   0.0000
     0.0000   0.0000   0.0000   0.0000   0.0000   0.0000   0.0000   0.0000
     0.0000   0.0000   0.0000   0.0000   0.0000   0.0000   0.0000   0.0000
     0.0000   0.0000   0.0000   0.0000   0.0000   0.0000   0.0000   0.0000
     0.0000   0.0000   0.0000   0.0000   0.0000   0.0000   0.0000   0.0000
     0.0000   0.0000   0.0000

[...]

          k =-0.5000-0.5000-0.5000 (269968 PWs)   bands (ev):

[...]

 ------ SPIN DOWN ----------

[...]

          k =-0.2500 0.0000 0.2500 (269929 PWs)   bands (ev):

[...]

          k = 0.2500-0.2500-0.5000 (269988 PWs)   bands (ev):

  -103.4467 -60.8905 -60.8651 -60.8651  -7.4940  -7.4261  -7.2937  -7.2931
    -7.2345  -7.2046  -7.1464  -7.0435  -7.0212  -7.0191  -6.9818  -6.9771
    -6.9678  -6.9609  -6.9226  -6.9025  -6.9010  -6.8945  -6.8835  -6.8693
    -6.8619  -6.8482  -6.8360  -6.8307  -6.8172  -6.8080  -6.8050  -6.8035
    -6.4529  -6.3416  -6.3388  -3.8713  -3.8704  -3.8674  -3.8360  -3.8354
    -3.8324  -3.8310  -3.8299  -3.8271  -3.8224  -3.8184  -3.8158  -3.8144
    -3.8116  -3.8110  -3.8082  -3.8010  -3.8003  -3.7928  -3.7871  -3.7855
    -3.7805  -3.7791  -3.7767  -3.7725  -3.7706  -3.7678  -3.7666  -3.7640
    -3.7602  -3.7575  -3.7562  -3.7515  -3.7488  -3.7477  -3.7449  -3.7407
    -3.7405  -3.7394  -3.7373  -3.7359  -3.7290  -3.7217  -3.7189  -3.7137
    -3.7098  -3.7095  -3.7072  -3.7052  -3.7030  -3.7009  -3.6980  -3.6966
    -3.6956  -3.6906  -3.6882  -3.6856  -3.6843  -3.6829  -3.6788  -3.6742
    -3.6718  -3.6655  -3.6628  -3.6548  -3.6541  -3.6488  -3.6447  -3.6436
    -3.6405  -3.6394  -3.6389  -3.6370  -3.6323  -3.6308  -3.6290  -3.6267
    -3.6224  -3.6192  -3.6172  -3.6154  -3.6144  -3.6120  -3.6088  -3.6082
    -3.6064  -3.6041  -3.6016  -3.5995  -3.5943  -3.5903  -3.5901  -3.5885
    -3.5833  -3.5802  -3.5745  -3.5740  -3.5690  -3.5679  -3.5612  -3.5537
    -3.5420  -3.5388  -3.5340  -3.5177  -3.5158  -3.5136  -3.5123  -3.5082
    -3.5019  -3.4974  -3.4930  -3.4901  -3.4848  -3.4811  -3.4783  -3.4757
    -3.4743  -3.4706  -3.4673  -3.4627  -3.4585  -3.4512  -3.4406  -3.4250
    -3.4191  -3.4148  -3.4125  -3.3970  -3.3961  -3.3943  -3.3331  -3.3149
    -3.3066  -3.2887  -3.2424  -3.2236  -3.2012  -3.1830  -3.1634  -3.1368
    -3.1044  -3.0970  -3.0695  -3.0627  -3.0527  -3.0391  -3.0217  -3.0099
    -2.9999  -2.9881  -2.9798  -2.9704  -2.9591  -2.9472   0.4636   0.5291
     0.5980   0.6216   0.6696   0.6790   0.6983   0.7242   0.7257   0.7407
     0.7581   0.7749   0.8001   0.8291   0.8710   0.8985   0.9480   1.0448
     1.1406   1.2022   1.2376   1.2728   1.3150   1.4143   1.5759   1.8443
     2.0289   2.1854   2.2515   2.2537   2.3107   2.3474   2.3705   2.3773
     2.4524   2.5300   2.5338   2.5759   2.5872   2.6668   2.6966   2.7205
     2.7639   2.8243   2.8412   2.9272   3.0462   3.1188   3.1409   3.1985
     3.2650   3.2957   3.3047   3.3079   3.3224   3.3402   3.3881   3.4166
     3.4287   3.4406   3.4530   3.4818   3.4891   3.5098   3.5272   3.5640
     3.5911   3.6002   3.6418   3.6695   3.7298   3.7415   3.8173   3.8241
     3.8825   3.9282   3.9516   3.9693   4.0227   4.0404   4.1317   4.1641
     4.1895   4.2041   4.2241   4.2711   4.3601   4.4492   4.5350   4.6106
     4.6230   4.6718   4.7252   4.7974   4.8147   4.8375   5.1722   5.2462
     6.9259   8.3467   8.4444   8.8856   8.9433   9.0411   9.0915   9.2385
     9.2977   9.3270   9.3941   9.4860   9.5090   9.5382   9.5608   9.5788
     9.6382   9.6955   9.7126   9.7483   9.7868   9.8236   9.8438   9.8972
     9.9396   9.9632  10.0275  10.0485  10.0651  10.1370  10.1787  10.2772
    10.2939  10.3924  10.4255  10.5812  10.6616  10.7064  10.7297  10.7896
    10.8189  10.9128  11.0136  11.1038  11.1697  11.2191  11.3199  11.3836
    11.4182  11.4401  11.4528  11.4956  11.5284  11.5532  11.5810  11.5984
    11.6177  11.6214  11.6561

     occupation numbers
     1.0000   1.0000   1.0000   1.0000   1.0000   1.0000   1.0000   1.0000
     1.0000   1.0000   1.0000   1.0000   1.0000   1.0000   1.0000   1.0000
     1.0000   1.0000   1.0000   1.0000   1.0000   1.0000   1.0000   1.0000
     1.0000   1.0000   1.0000   1.0000   1.0000   1.0000   1.0000   1.0000
     1.0000   1.0000   1.0000   1.0000   1.0000   1.0000   1.0000   1.0000
     1.0000   1.0000   1.0000   1.0000   1.0000   1.0000   1.0000   1.0000
     1.0000   1.0000   1.0000   1.0000   1.0000   1.0000   1.0000   1.0000
     1.0000   1.0000   1.0000   1.0000   1.0000   1.0000   1.0000   1.0000
     1.0000   1.0000   1.0000   1.0000   1.0000   1.0000   1.0000   1.0000
     1.0000   1.0000   1.0000   1.0000   1.0000   1.0000   1.0000   1.0000
     1.0000   1.0000   1.0000   1.0000   1.0000   1.0000   1.0000   1.0000
     1.0000   1.0000   1.0000   1.0000   1.0000   1.0000   1.0000   1.0000
     1.0000   1.0000   1.0000   1.0000   1.0000   1.0000   1.0000   1.0000
     1.0000   1.0000   1.0000   1.0000   1.0000   1.0000   1.0000   1.0000
     1.0000   1.0000   1.0000   1.0000   1.0000   1.0000   1.0000   1.0000
     1.0000   1.0000   1.0000   1.0000   1.0000   1.0000   1.0000   1.0000
     1.0000   1.0000   1.0000   1.0000   1.0000   1.0000   1.0000   1.0000
     1.0000   1.0000   1.0000   1.0000   1.0000   1.0000   1.0000   1.0000
     1.0000   1.0000   1.0000   1.0000   1.0000   1.0000   1.0000   1.0000
     1.0000   1.0000   1.0000   1.0000   1.0000   1.0000   1.0000   1.0000
     1.0000   1.0000   1.0000   1.0000   1.0000   1.0000   1.0000   1.0000
     1.0000   1.0000   1.0000   1.0000   1.0000   1.0000   1.0000   1.0000
     1.0000   1.0000   1.0000   1.0000   1.0000   1.0000   1.0000   1.0000
     1.0000   1.0000   1.0000   1.0000   1.0000   1.0000   1.0000   1.0000
     1.0000   1.0000   1.0000   1.0000   1.0000   1.0000   1.0000   1.0000
     1.0000   1.0000   1.0000   1.0000   1.0000   1.0000   1.0000   1.0000
     1.0000   1.0000   1.0000   1.0000   1.0000   1.0000   1.0000   1.0000
     1.0000   1.0000   1.0000   1.0000   1.0000   1.0000   1.0000   1.0000
     1.0000   1.0000   1.0000   1.0000   1.0000   1.0000   1.0000   1.0000
     1.0000   1.0000   1.0000   1.0000   1.0000   1.0000   1.0000   1.0000
     1.0000   1.0000   1.0000   1.0000   1.0000   1.0000   1.0000   1.0000
     1.0000   1.0000   1.0000   1.0000   1.0000   1.0000   1.0000   1.0000
     1.0000   1.0000   1.0000   1.0000   1.0000   1.0000   1.0000   1.0000
     1.0000   1.0000   1.0000   1.0000   1.0000   1.0000   1.0000   1.0000
     1.0000   1.0000   1.0000   1.0000   1.0000   1.0000   1.0000   1.0000
     1.0000   1.0000   1.0000   1.0000   1.0000   1.0000   1.0000   1.0000
     1.0000   0.0000   0.0000   0.0000   0.0000   0.0000   0.0000   0.0000
     0.0000   0.0000   0.0000   0.0000   0.0000   0.0000   0.0000   0.0000
     0.0000   0.0000   0.0000   0.0000   0.0000   0.0000   0.0000   0.0000
     0.0000   0.0000   0.0000   0.0000   0.0000   0.0000   0.0000   0.0000
     0.0000   0.0000   0.0000   0.0000   0.0000   0.0000   0.0000   0.0000
     0.0000   0.0000   0.0000   0.0000   0.0000   0.0000   0.0000   0.0000
     0.0000   0.0000   0.0000   0.0000   0.0000   0.0000   0.0000   0.0000
     0.0000   0.0000   0.0000

     the Fermi energy is     7.6213 ev

!    total energy              =  -10100.06157804 Ry
     total all-electron energy =   -139418.590626 Ry
     estimated scf accuracy    <          6.9E-10 Ry
     smearing contrib. (-TS)   =      -0.00000000 Ry
     internal energy E=F+TS    =  -10100.06157804 Ry

     The total energy is F=E-TS. E is the sum of the following terms:
     one-electron contribution =   -3087.83919557 Ry
     hartree contribution      =    2121.57928638 Ry
     xc contribution           =   -1662.47405083 Ry
     ewald contribution        =   -2984.70201120 Ry
     Hubbard energy            =       0.27597113 Ry
     one-center paw contrib.   =   -4486.90157795 Ry
      -> PAW hartree energy AE =     123.90672276 Ry
      -> PAW hartree energy PS =    -123.25991916 Ry
      -> PAW xc energy AE      =    -143.27798335 Ry
      -> PAW xc energy PS      =      47.21449382 Ry
      -> total E_H with PAW    =    2122.22608998 Ry
      -> total E_XC with PAW   =   -1758.53754036 Ry

     total magnetization       =     0.00 Bohr mag/cell
     absolute magnetization    =     0.00 Bohr mag/cell

     convergence has been achieved in  14 iterations

     Writing all to output data dir ./out/Cu_vac_qn1_U7_unrlxd.save/

     General routines

     Parallel routines

     Hubbard U routines

     PAW routines

   This run was terminated on:   7:54: 1  22Jul2024

   JOB DONE.