     Program PWSCF v.7.2 starts on 15Feb2024 at 18:21:18

     Reading input from scf.k-18.in

     Current dimensions of program PWSCF are:
     Max number of different atomic species (ntypx) = 10
     Max number of k-points (npk) =  40000
     Max angular momentum in pseudopotentials (lmaxx) =  4
     file Cu.pbe-spn-kjpaw_psl.1.0.0.UPF: wavefunction(s)  4S 3P 3D renormalized
     Found identity + (  0.0000 -0.5000 -0.5000) symmetry
     This is a supercell, fractional translations are disabled

     R & G space division:  proc/nbgrp/npool/nimage =      10
     Subspace diagonalization in iterative solution of the eigenvalue problem:
     a serial algorithm will be used

     Using Slab Decomposition

     bravais-lattice index     =            1
     lattice parameter (alat)  =       6.7604  a.u.
     unit-cell volume          =     308.9657 (a.u.)^3
     number of atoms/cell      =            4
     number of atomic types    =            1
     number of electrons       =        76.00
     number of Kohn-Sham states=           46
     kinetic-energy cutoff     =     130.0000  Ry
     charge density cutoff     =     520.0000  Ry
     scf convergence threshold =      1.0E-08
     mixing beta               =       0.7000
     number of iterations used =            8  plain     mixing
     Exchange-correlation= SLA  PW   PBX  PBC
                           (   1   4   3   4   0   0   0)

     celldm(1)=   6.760364  celldm(2)=   0.000000  celldm(3)=   0.000000
     celldm(4)=   0.000000  celldm(5)=   0.000000  celldm(6)=   0.000000

     crystal axes: (cart. coord. in units of alat)
               a(1) = (   1.000000   0.000000   0.000000 )
               a(2) = (   0.000000   1.000000   0.000000 )
               a(3) = (   0.000000   0.000000   1.000000 )

     reciprocal axes: (cart. coord. in units 2 pi/alat)
               b(1) = (  1.000000  0.000000  0.000000 )
               b(2) = (  0.000000  1.000000  0.000000 )
               b(3) = (  0.000000  0.000000  1.000000 )

     PseudoPot. # 1 for Cu read from file:
     /home/abdul/git_repo/ZnS_Cu-Vacancy/pseudo/QE/Cu.pbe-spn-kjpaw_psl.1.0.0.UPF
     MD5 check sum: e7cbaad2f97193e5fe23251a619a52b0
     Pseudo is Projector augmented-wave + core cor, Zval = 19.0
     Generated using &quot;atomic&quot; code by A. Dal Corso  v.6.3
     Shape of augmentation charge: PSQ
     Using radial grid of 1199 points,  6 beta functions with:
                l(1) =   0
                l(2) =   0
                l(3) =   1
                l(4) =   1
                l(5) =   2
                l(6) =   2
     Q(r) pseudized with 0 coefficients

     atomic species   valence    mass     pseudopotential
        Cu            19.00    63.54600     Cu( 1.00)

     48 Sym. Ops., with inversion, found

                                    s                        frac. trans.

      isym =  1     identity

 cryst.   s( 1) = (     1          0          0      )
                  (     0          1          0      )
                  (     0          0          1      )

 cart.    s( 1) = (  1.0000000  0.0000000  0.0000000 )
                  (  0.0000000  1.0000000  0.0000000 )
                  (  0.0000000  0.0000000  1.0000000 )

      isym =  2     180 deg rotation - cart. axis [0,0,1]

[...]

 cryst.   s( 9) = (     0          0          1      )
                  (     0         -1          0      )
                  (     1          0          0      )

 cart.    s( 9) = (  0.0000000  0.0000000  1.0000000 )
                  (  0.0000000 -1.0000000  0.0000000 )
                  (  1.0000000  0.0000000  0.0000000 )

[...]

 cryst.   s(10) = (     0          0         -1      )
                  (     0         -1          0      )
                  (    -1          0          0      )

 cart.    s(10) = (  0.0000000  0.0000000 -1.0000000 )
                  (  0.0000000 -1.0000000  0.0000000 )
                  ( -1.0000000  0.0000000  0.0000000 )

[...]

      isym = 24     120 deg rotation - cart. axis [-1,-1,1]

[...]

      isym = 25     inversion

[...]

      isym = 26     inv. 180 deg rotation - cart. axis [0,0,1]

[...]

      isym = 48     inv. 120 deg rotation - cart. axis [-1,-1,1]

 cryst.   s(48) = (     0         -1          0      )
                  (     0          0          1      )
                  (     1          0          0      )

 cart.    s(48) = (  0.0000000  0.0000000  1.0000000 )
                  ( -1.0000000  0.0000000  0.0000000 )
                  (  0.0000000  1.0000000  0.0000000 )

     point group O_h (m-3m)
     there are 10 classes
     the character table:

       E     8C3   3C2   6C4   6C2'  i     8S6   3s_h  6S4   6s_d
A_1g   1.00  1.00  1.00  1.00  1.00  1.00  1.00  1.00  1.00  1.00
A_2g   1.00  1.00  1.00 -1.00 -1.00  1.00  1.00  1.00 -1.00 -1.00
E_g    2.00 -1.00  2.00  0.00  0.00  2.00 -1.00  2.00  0.00  0.00
T_1g   3.00  0.00 -1.00  1.00 -1.00  3.00  0.00 -1.00  1.00 -1.00
T_2g   3.00  0.00 -1.00 -1.00  1.00  3.00  0.00 -1.00 -1.00  1.00
A_1u   1.00  1.00  1.00  1.00  1.00 -1.00 -1.00 -1.00 -1.00 -1.00
A_2u   1.00  1.00  1.00 -1.00 -1.00 -1.00 -1.00 -1.00  1.00  1.00
E_u    2.00 -1.00  2.00  0.00  0.00 -2.00  1.00 -2.00  0.00  0.00
T_1u   3.00  0.00 -1.00  1.00 -1.00 -3.00  0.00  1.00 -1.00  1.00
T_2u   3.00  0.00 -1.00 -1.00  1.00 -3.00  0.00  1.00  1.00 -1.00

     the symmetry operations in each class and the name of the first element:

     E        1
          identity
     8C3     17   19   20   18   24   21   22   23
          120 deg rotation - cart. axis [-1,-1,-1]
     3C2      2    4    3
          180 deg rotation - cart. axis [0,0,1]
     6C4      7    8   15   16   12   11
           90 deg rotation - cart. axis [0,0,-1]
     6C2'     5    6   14   13   10    9
          180 deg rotation - cart. axis [1,1,0]
     i       25
          inversion
     8S6     41   43   44   42   48   45   46   47
          inv. 120 deg rotation - cart. axis [-1,-1,-1]
     3s_h    26   28   27
          inv. 180 deg rotation - cart. axis [0,0,1]
     6S4     31   32   39   40   36   35
          inv.  90 deg rotation - cart. axis [0,0,-1]
     6s_d    29   30   38   37   34   33
          inv. 180 deg rotation - cart. axis [1,1,0]

   Cartesian axes

     site n.     atom                  positions (alat units)
         1           Cu  tau(   1) = (   0.0000000   0.0000000   0.0000000  )
         2           Cu  tau(   2) = (   0.0000000   0.5000000   0.5000000  )
         3           Cu  tau(   3) = (   0.5000000   0.0000000   0.5000000  )
         4           Cu  tau(   4) = (   0.5000000   0.5000000   0.0000000  )

   Crystallographic axes

     site n.     atom                  positions (cryst. coord.)
         1           Cu  tau(   1) = (  0.0000000  0.0000000  0.0000000  )
         2           Cu  tau(   2) = (  0.0000000  0.5000000  0.5000000  )
         3           Cu  tau(   3) = (  0.5000000  0.0000000  0.5000000  )
         4           Cu  tau(   4) = (  0.5000000  0.5000000  0.0000000  )

     number of k points=   220  Gaussian smearing, width (Ry)=  0.0073
                       cart. coord. in units 2pi/alat
        k(    1) = (   0.0000000   0.0000000   0.0000000), wk =   0.0003429
        k(    2) = (   0.0000000   0.0000000   0.0555556), wk =   0.0020576
        k(    3) = (   0.0000000   0.0000000   0.1111111), wk =   0.0020576
        k(    4) = (   0.0000000   0.0000000   0.1666667), wk =   0.0020576
        k(    5) = (   0.0000000   0.0000000   0.2222222), wk =   0.0020576
        k(    6) = (   0.0000000   0.0000000   0.2777778), wk =   0.0020576
        k(    7) = (   0.0000000   0.0000000   0.3333333), wk =   0.0020576
        k(    8) = (   0.0000000   0.0000000   0.3888889), wk =   0.0020576
        k(    9) = (   0.0000000   0.0000000   0.4444444), wk =   0.0020576
        k(   10) = (   0.0000000   0.0000000  -0.5000000), wk =   0.0010288
        k(   11) = (   0.0000000   0.0555556   0.0555556), wk =   0.0041152
        k(   12) = (   0.0000000   0.0555556   0.1111111), wk =   0.0082305
        k(   13) = (   0.0000000   0.0555556   0.1666667), wk =   0.0082305
        k(   14) = (   0.0000000   0.0555556   0.2222222), wk =   0.0082305
        k(   15) = (   0.0000000   0.0555556   0.2777778), wk =   0.0082305
        k(   16) = (   0.0000000   0.0555556   0.3333333), wk =   0.0082305
        k(   17) = (   0.0000000   0.0555556   0.3888889), wk =   0.0082305
        k(   18) = (   0.0000000   0.0555556   0.4444444), wk =   0.0082305
        k(   19) = (   0.0000000   0.0555556  -0.5000000), wk =   0.0041152
        k(   20) = (   0.0000000   0.1111111   0.1111111), wk =   0.0041152
        k(   21) = (   0.0000000   0.1111111   0.1666667), wk =   0.0082305
        k(   22) = (   0.0000000   0.1111111   0.2222222), wk =   0.0082305
        k(   23) = (   0.0000000   0.1111111   0.2777778), wk =   0.0082305
        k(   24) = (   0.0000000   0.1111111   0.3333333), wk =   0.0082305
        k(   25) = (   0.0000000   0.1111111   0.3888889), wk =   0.0082305
        k(   26) = (   0.0000000   0.1111111   0.4444444), wk =   0.0082305
        k(   27) = (   0.0000000   0.1111111  -0.5000000), wk =   0.0041152
        k(   28) = (   0.0000000   0.1666667   0.1666667), wk =   0.0041152
        k(   29) = (   0.0000000   0.1666667   0.2222222), wk =   0.0082305
        k(   30) = (   0.0000000   0.1666667   0.2777778), wk =   0.0082305
        k(   31) = (   0.0000000   0.1666667   0.3333333), wk =   0.0082305
        k(   32) = (   0.0000000   0.1666667   0.3888889), wk =   0.0082305
        k(   33) = (   0.0000000   0.1666667   0.4444444), wk =   0.0082305
        k(   34) = (   0.0000000   0.1666667  -0.5000000), wk =   0.0041152
        k(   35) = (   0.0000000   0.2222222   0.2222222), wk =   0.0041152
        k(   36) = (   0.0000000   0.2222222   0.2777778), wk =   0.0082305
        k(   37) = (   0.0000000   0.2222222   0.3333333), wk =   0.0082305
        k(   38) = (   0.0000000   0.2222222   0.3888889), wk =   0.0082305
        k(   39) = (   0.0000000   0.2222222   0.4444444), wk =   0.0082305
        k(   40) = (   0.0000000   0.2222222  -0.5000000), wk =   0.0041152
        k(   41) = (   0.0000000   0.2777778   0.2777778), wk =   0.0041152
        k(   42) = (   0.0000000   0.2777778   0.3333333), wk =   0.0082305
        k(   43) = (   0.0000000   0.2777778   0.3888889), wk =   0.0082305
        k(   44) = (   0.0000000   0.2777778   0.4444444), wk =   0.0082305
        k(   45) = (   0.0000000   0.2777778  -0.5000000), wk =   0.0041152
        k(   46) = (   0.0000000   0.3333333   0.3333333), wk =   0.0041152
        k(   47) = (   0.0000000   0.3333333   0.3888889), wk =   0.0082305
        k(   48) = (   0.0000000   0.3333333   0.4444444), wk =   0.0082305
        k(   49) = (   0.0000000   0.3333333  -0.5000000), wk =   0.0041152
        k(   50) = (   0.0000000   0.3888889   0.3888889), wk =   0.0041152
        k(   51) = (   0.0000000   0.3888889   0.4444444), wk =   0.0082305
        k(   52) = (   0.0000000   0.3888889  -0.5000000), wk =   0.0041152
        k(   53) = (   0.0000000   0.4444444   0.4444444), wk =   0.0041152
        k(   54) = (   0.0000000   0.4444444  -0.5000000), wk =   0.0041152
        k(   55) = (   0.0000000  -0.5000000  -0.5000000), wk =   0.0010288
        k(   56) = (   0.0555556   0.0555556   0.0555556), wk =   0.0027435
        k(   57) = (   0.0555556   0.0555556   0.1111111), wk =   0.0082305
        k(   58) = (   0.0555556   0.0555556   0.1666667), wk =   0.0082305
        k(   59) = (   0.0555556   0.0555556   0.2222222), wk =   0.0082305
        k(   60) = (   0.0555556   0.0555556   0.2777778), wk =   0.0082305
[...]
        k(  206) = (   0.3333333   0.3888889   0.4444444), wk =   0.0164609
        k(  207) = (   0.3333333   0.3888889  -0.5000000), wk =   0.0082305
        k(  208) = (   0.3333333   0.4444444   0.4444444), wk =   0.0082305
        k(  209) = (   0.3333333   0.4444444  -0.5000000), wk =   0.0082305
        k(  210) = (   0.3333333  -0.5000000  -0.5000000), wk =   0.0020576
        k(  211) = (   0.3888889   0.3888889   0.3888889), wk =   0.0027435
        k(  212) = (   0.3888889   0.3888889   0.4444444), wk =   0.0082305
        k(  213) = (   0.3888889   0.3888889  -0.5000000), wk =   0.0041152
        k(  214) = (   0.3888889   0.4444444   0.4444444), wk =   0.0082305
        k(  215) = (   0.3888889   0.4444444  -0.5000000), wk =   0.0082305
        k(  216) = (   0.3888889  -0.5000000  -0.5000000), wk =   0.0020576
        k(  217) = (   0.4444444   0.4444444   0.4444444), wk =   0.0027435
        k(  218) = (   0.4444444   0.4444444  -0.5000000), wk =   0.0041152
        k(  219) = (   0.4444444  -0.5000000  -0.5000000), wk =   0.0020576
        k(  220) = (  -0.5000000  -0.5000000  -0.5000000), wk =   0.0003429

                       cryst. coord.
        k(    1) = (   0.0000000   0.0000000   0.0000000), wk =   0.0003429
        k(    2) = (   0.0000000   0.0000000   0.0555556), wk =   0.0020576
        k(    3) = (   0.0000000   0.0000000   0.1111111), wk =   0.0020576
        k(    4) = (   0.0000000   0.0000000   0.1666667), wk =   0.0020576
        k(    5) = (   0.0000000   0.0000000   0.2222222), wk =   0.0020576
        k(    6) = (   0.0000000   0.0000000   0.2777778), wk =   0.0020576
        k(    7) = (   0.0000000   0.0000000   0.3333333), wk =   0.0020576
        k(    8) = (   0.0000000   0.0000000   0.3888889), wk =   0.0020576
        k(    9) = (   0.0000000   0.0000000   0.4444444), wk =   0.0020576
        k(   10) = (   0.0000000   0.0000000  -0.5000000), wk =   0.0010288
        k(   11) = (   0.0000000   0.0555556   0.0555556), wk =   0.0041152
        k(   12) = (   0.0000000   0.0555556   0.1111111), wk =   0.0082305
        k(   13) = (   0.0000000   0.0555556   0.1666667), wk =   0.0082305
        k(   14) = (   0.0000000   0.0555556   0.2222222), wk =   0.0082305
        k(   15) = (   0.0000000   0.0555556   0.2777778), wk =   0.0082305
        k(   16) = (   0.0000000   0.0555556   0.3333333), wk =   0.0082305
        k(   17) = (   0.0000000   0.0555556   0.3888889), wk =   0.0082305
        k(   18) = (   0.0000000   0.0555556   0.4444444), wk =   0.0082305
        k(   19) = (   0.0000000   0.0555556  -0.5000000), wk =   0.0041152
        k(   20) = (   0.0000000   0.1111111   0.1111111), wk =   0.0041152
        k(   21) = (   0.0000000   0.1111111   0.1666667), wk =   0.0082305
        k(   22) = (   0.0000000   0.1111111   0.2222222), wk =   0.0082305
        k(   23) = (   0.0000000   0.1111111   0.2777778), wk =   0.0082305
        k(   24) = (   0.0000000   0.1111111   0.3333333), wk =   0.0082305
        k(   25) = (   0.0000000   0.1111111   0.3888889), wk =   0.0082305
        k(   26) = (   0.0000000   0.1111111   0.4444444), wk =   0.0082305
        k(   27) = (   0.0000000   0.1111111  -0.5000000), wk =   0.0041152
        k(   28) = (   0.0000000   0.1666667   0.1666667), wk =   0.0041152
        k(   29) = (   0.0000000   0.1666667   0.2222222), wk =   0.0082305
        k(   30) = (   0.0000000   0.1666667   0.2777778), wk =   0.0082305
        k(   31) = (   0.0000000   0.1666667   0.3333333), wk =   0.0082305
        k(   32) = (   0.0000000   0.1666667   0.3888889), wk =   0.0082305
        k(   33) = (   0.0000000   0.1666667   0.4444444), wk =   0.0082305
        k(   34) = (   0.0000000   0.1666667  -0.5000000), wk =   0.0041152
        k(   35) = (   0.0000000   0.2222222   0.2222222), wk =   0.0041152
        k(   36) = (   0.0000000   0.2222222   0.2777778), wk =   0.0082305
        k(   37) = (   0.0000000   0.2222222   0.3333333), wk =   0.0082305
        k(   38) = (   0.0000000   0.2222222   0.3888889), wk =   0.0082305
        k(   39) = (   0.0000000   0.2222222   0.4444444), wk =   0.0082305
        k(   40) = (   0.0000000   0.2222222  -0.5000000), wk =   0.0041152
        k(   41) = (   0.0000000   0.2777778   0.2777778), wk =   0.0041152
        k(   42) = (   0.0000000   0.2777778   0.3333333), wk =   0.0082305
        k(   43) = (   0.0000000   0.2777778   0.3888889), wk =   0.0082305
        k(   44) = (   0.0000000   0.2777778   0.4444444), wk =   0.0082305
        k(   45) = (   0.0000000   0.2777778  -0.5000000), wk =   0.0041152
        k(   46) = (   0.0000000   0.3333333   0.3333333), wk =   0.0041152
        k(   47) = (   0.0000000   0.3333333   0.3888889), wk =   0.0082305
        k(   48) = (   0.0000000   0.3333333   0.4444444), wk =   0.0082305
        k(   49) = (   0.0000000   0.3333333  -0.5000000), wk =   0.0041152
        k(   50) = (   0.0000000   0.3888889   0.3888889), wk =   0.0041152
        k(   51) = (   0.0000000   0.3888889   0.4444444), wk =   0.0082305
        k(   52) = (   0.0000000   0.3888889  -0.5000000), wk =   0.0041152
        k(   53) = (   0.0000000   0.4444444   0.4444444), wk =   0.0041152
        k(   54) = (   0.0000000   0.4444444  -0.5000000), wk =   0.0041152
        k(   55) = (   0.0000000  -0.5000000  -0.5000000), wk =   0.0010288
        k(   56) = (   0.0555556   0.0555556   0.0555556), wk =   0.0027435
        k(   57) = (   0.0555556   0.0555556   0.1111111), wk =   0.0082305
        k(   58) = (   0.0555556   0.0555556   0.1666667), wk =   0.0082305
        k(   59) = (   0.0555556   0.0555556   0.2222222), wk =   0.0082305
        k(   60) = (   0.0555556   0.0555556   0.2777778), wk =   0.0082305
[...]
        k(  206) = (   0.3333333   0.3888889   0.4444444), wk =   0.0164609
        k(  207) = (   0.3333333   0.3888889  -0.5000000), wk =   0.0082305
        k(  208) = (   0.3333333   0.4444444   0.4444444), wk =   0.0082305
        k(  209) = (   0.3333333   0.4444444  -0.5000000), wk =   0.0082305
        k(  210) = (   0.3333333  -0.5000000  -0.5000000), wk =   0.0020576
        k(  211) = (   0.3888889   0.3888889   0.3888889), wk =   0.0027435
        k(  212) = (   0.3888889   0.3888889   0.4444444), wk =   0.0082305
        k(  213) = (   0.3888889   0.3888889  -0.5000000), wk =   0.0041152
        k(  214) = (   0.3888889   0.4444444   0.4444444), wk =   0.0082305
        k(  215) = (   0.3888889   0.4444444  -0.5000000), wk =   0.0082305
        k(  216) = (   0.3888889  -0.5000000  -0.5000000), wk =   0.0020576
        k(  217) = (   0.4444444   0.4444444   0.4444444), wk =   0.0027435
        k(  218) = (   0.4444444   0.4444444  -0.5000000), wk =   0.0041152
        k(  219) = (   0.4444444  -0.5000000  -0.5000000), wk =   0.0020576
        k(  220) = (  -0.5000000  -0.5000000  -0.5000000), wk =   0.0003429

     The initial density is read from file :
     ./out/Cu.save/charge-density

     Wavefunctions not found or not readable, recomputing them from scratch
     Starting wfcs are   40 randomized atomic wfcs +    6 random wfcs
     Checking if some PAW data can be deallocated...

     Self-consistent Calculation

     iteration #  1     ecut=   130.00 Ry     beta= 0.70
     Davidson diagonalization with overlap

     ethr =  1.00E-05,  avg # of iterations = 10.6

     Threshold (ethr) on eigenvalues was too large:
     Diagonalizing with lowered threshold

     Davidson diagonalization with overlap

[...]

     total energy              =   -1947.54834235 Ry
     estimated scf accuracy    <       0.00000047 Ry

[...]

     total energy              =   -1947.54834257 Ry
     estimated scf accuracy    <       0.00000014 Ry

     iteration #  5     ecut=   130.00 Ry     beta= 0.70
     Davidson diagonalization with overlap

     ethr =  1.64E-11,  avg # of iterations =  2.1

     End of self-consistent calculation

          k = 0.0000 0.0000 0.0000 (  7809 PWs)   bands (ev):

   -95.7798 -95.7583 -95.7583 -95.7583 -53.2004 -53.2004 -53.2004 -53.1316
   -53.1316 -53.1316 -53.1316 -53.1316 -53.1316 -53.0851 -53.0851 -53.0851
     7.2454  11.8280  11.8280  11.8280  12.3193  12.3193  12.3193  13.8021
    13.8021  13.8021  14.6765  14.6765  15.2606  15.2606  15.2606  15.4319
    15.4319  15.4319  15.4319  15.4319  15.4319  18.3472  18.3472  18.3472
    24.2165  24.2165  24.2165  30.2275  30.2275  30.2275

     occupation numbers
     1.0000   1.0000   1.0000   1.0000   1.0000   1.0000   1.0000   1.0000
     1.0000   1.0000   1.0000   1.0000   1.0000   1.0000   1.0000   1.0000
     1.0000   1.0000   1.0000   1.0000   1.0000   1.0000   1.0000   1.0000
     1.0000   1.0000   1.0000   1.0000   1.0000   1.0000   1.0000   1.0000
     1.0000   1.0000   1.0000   1.0000   1.0000   0.0000   0.0000   0.0000
     0.0000   0.0000   0.0000   0.0000   0.0000   0.0000

[...]

          k = 0.4444-0.5000-0.5000 (  7724 PWs)   bands (ev):

[...]

          k =-0.5000-0.5000-0.5000 (  7664 PWs)   bands (ev):

   -95.7636 -95.7636 -95.7636 -95.7636 -53.2064 -53.2064 -53.2064 -53.2064
   -53.1033 -53.1033 -53.1033 -53.1033 -53.1033 -53.1033 -53.1033 -53.1033
    11.6287  11.6287  11.6287  11.6287  13.7653  13.7653  13.7653  13.7653
    13.7653  13.7653  13.7653  13.7653  15.2800  15.2800  15.2800  15.2800
    15.2800  15.2800  15.2800  15.2800  15.7759  15.7759  15.7759  15.7759
    20.8071  20.8071  20.8071  20.8071  38.2923  38.2923

     occupation numbers
     1.0000   1.0000   1.0000   1.0000   1.0000   1.0000   1.0000   1.0000
     1.0000   1.0000   1.0000   1.0000   1.0000   1.0000   1.0000   1.0000
     1.0000   1.0000   1.0000   1.0000   1.0000   1.0000   1.0000   1.0000
     1.0000   1.0000   1.0000   1.0000   1.0000   1.0000   1.0000   1.0000
     1.0000   1.0000   1.0000   1.0000   1.0000   1.0000   1.0000   1.0000
     0.0000   0.0000   0.0000   0.0000   0.0000   0.0000

     the Fermi energy is    16.9394 ev

!    total energy              =   -1947.54834259 Ry
     total all-electron energy =    -13239.894757 Ry
     estimated scf accuracy    <          8.8E-10 Ry
     smearing contrib. (-TS)   =      -0.00041893 Ry
     internal energy E=F+TS    =   -1947.54792366 Ry

     The total energy is F=E-TS. E is the sum of the following terms:
     one-electron contribution =    -967.98919506 Ry
     hartree contribution      =     548.50412500 Ry
     xc contribution           =    -153.30215491 Ry
     ewald contribution        =    -979.31718513 Ry
     one-center paw contrib.   =    -395.44351356 Ry
      -> PAW hartree energy AE =     319.31996202 Ry
      -> PAW hartree energy PS =    -321.29769692 Ry
      -> PAW xc energy AE      =    -133.83707214 Ry
      -> PAW xc energy PS      =      36.95393188 Ry
      -> total E_H with PAW    =     546.52639011 Ry
      -> total E_XC with PAW   =    -250.18529518 Ry

     convergence has been achieved in   5 iterations

     Writing all to output data dir ./out/Cu.save/

     General routines

     Parallel routines

     PAW routines

   This run was terminated on:  18:32:41  15Feb2024

   JOB DONE.