     Program PWSCF v.7.2 starts on 15Feb2024 at 22:59: 3

     Waiting for input...
     Reading input from standard input

     Current dimensions of program PWSCF are:
     Max number of different atomic species (ntypx) = 10
     Max number of k-points (npk) =  40000
     Max angular momentum in pseudopotentials (lmaxx) =  4
     file Cu.pbe-spn-kjpaw_psl.1.0.0.UPF: wavefunction(s)  4S 3P 3D renormalized
     Found identity + (  0.0000 -0.5000 -0.5000) symmetry
     This is a supercell, fractional translations are disabled

     R & G space division:  proc/nbgrp/npool/nimage =      10
     Subspace diagonalization in iterative solution of the eigenvalue problem:
     a serial algorithm will be used

     Using Slab Decomposition

     bravais-lattice index     =            1
     lattice parameter (alat)  =       6.8609  a.u.
     unit-cell volume          =     322.9605 (a.u.)^3
     number of atoms/cell      =            4
     number of atomic types    =            1
     number of electrons       =        76.00
     number of Kohn-Sham states=           46
     kinetic-energy cutoff     =     130.0000  Ry
     charge density cutoff     =     520.0000  Ry
     scf convergence threshold =      1.0E-08
     mixing beta               =       0.7000
     number of iterations used =            8  plain     mixing
     Exchange-correlation= SLA  PW   PBX  PBC
                           (   1   4   3   4   0   0   0)

     celldm(1)=   6.860932  celldm(2)=   0.000000  celldm(3)=   0.000000
     celldm(4)=   0.000000  celldm(5)=   0.000000  celldm(6)=   0.000000

     crystal axes: (cart. coord. in units of alat)
               a(1) = (   1.000000   0.000000   0.000000 )
               a(2) = (   0.000000   1.000000   0.000000 )
               a(3) = (   0.000000   0.000000   1.000000 )

     reciprocal axes: (cart. coord. in units 2 pi/alat)
               b(1) = (  1.000000  0.000000  0.000000 )
               b(2) = (  0.000000  1.000000  0.000000 )
               b(3) = (  0.000000  0.000000  1.000000 )

     PseudoPot. # 1 for Cu read from file:
     /home/abdul/git_repo/ZnS_Cu-Vacancy/pseudo/QE/Cu.pbe-spn-kjpaw_psl.1.0.0.UPF
     MD5 check sum: e7cbaad2f97193e5fe23251a619a52b0
     Pseudo is Projector augmented-wave + core cor, Zval = 19.0
     Generated using &quot;atomic&quot; code by A. Dal Corso  v.6.3
     Shape of augmentation charge: PSQ
     Using radial grid of 1199 points,  6 beta functions with:
                l(1) =   0
                l(2) =   0
                l(3) =   1
                l(4) =   1
                l(5) =   2
                l(6) =   2
     Q(r) pseudized with 0 coefficients

     atomic species   valence    mass     pseudopotential
        Cu            19.00    63.54600     Cu( 1.00)

     Starting magnetic structure
     atomic species   magnetization
        Cu           0.100

     48 Sym. Ops., with inversion, found

                                    s                        frac. trans.

      isym =  1     identity

 cryst.   s( 1) = (     1          0          0      )
                  (     0          1          0      )
                  (     0          0          1      )

 cart.    s( 1) = (  1.0000000  0.0000000  0.0000000 )
                  (  0.0000000  1.0000000  0.0000000 )
                  (  0.0000000  0.0000000  1.0000000 )

      isym =  2     180 deg rotation - cart. axis [0,0,1]

[...]

 cryst.   s( 9) = (     0          0          1      )
                  (     0         -1          0      )
                  (     1          0          0      )

 cart.    s( 9) = (  0.0000000  0.0000000  1.0000000 )
                  (  0.0000000 -1.0000000  0.0000000 )
                  (  1.0000000  0.0000000  0.0000000 )

[...]

 cryst.   s(10) = (     0          0         -1      )
                  (     0         -1          0      )
                  (    -1          0          0      )

 cart.    s(10) = (  0.0000000  0.0000000 -1.0000000 )
                  (  0.0000000 -1.0000000  0.0000000 )
                  ( -1.0000000  0.0000000  0.0000000 )

[...]

      isym = 24     120 deg rotation - cart. axis [-1,-1,1]

[...]

      isym = 25     inversion

[...]

      isym = 26     inv. 180 deg rotation - cart. axis [0,0,1]

[...]

      isym = 48     inv. 120 deg rotation - cart. axis [-1,-1,1]

 cryst.   s(48) = (     0         -1          0      )
                  (     0          0          1      )
                  (     1          0          0      )

 cart.    s(48) = (  0.0000000  0.0000000  1.0000000 )
                  ( -1.0000000  0.0000000  0.0000000 )
                  (  0.0000000  1.0000000  0.0000000 )

     point group O_h (m-3m)
     there are 10 classes
     the character table:

       E     8C3   3C2   6C4   6C2'  i     8S6   3s_h  6S4   6s_d
A_1g   1.00  1.00  1.00  1.00  1.00  1.00  1.00  1.00  1.00  1.00
A_2g   1.00  1.00  1.00 -1.00 -1.00  1.00  1.00  1.00 -1.00 -1.00
E_g    2.00 -1.00  2.00  0.00  0.00  2.00 -1.00  2.00  0.00  0.00
T_1g   3.00  0.00 -1.00  1.00 -1.00  3.00  0.00 -1.00  1.00 -1.00
T_2g   3.00  0.00 -1.00 -1.00  1.00  3.00  0.00 -1.00 -1.00  1.00
A_1u   1.00  1.00  1.00  1.00  1.00 -1.00 -1.00 -1.00 -1.00 -1.00
A_2u   1.00  1.00  1.00 -1.00 -1.00 -1.00 -1.00 -1.00  1.00  1.00
E_u    2.00 -1.00  2.00  0.00  0.00 -2.00  1.00 -2.00  0.00  0.00
T_1u   3.00  0.00 -1.00  1.00 -1.00 -3.00  0.00  1.00 -1.00  1.00
T_2u   3.00  0.00 -1.00 -1.00  1.00 -3.00  0.00  1.00  1.00 -1.00

     the symmetry operations in each class and the name of the first element:

     E        1
          identity
     8C3     17   19   20   18   24   21   22   23
          120 deg rotation - cart. axis [-1,-1,-1]
     3C2      2    4    3
          180 deg rotation - cart. axis [0,0,1]
     6C4      7    8   15   16   12   11
           90 deg rotation - cart. axis [0,0,-1]
     6C2'     5    6   14   13   10    9
          180 deg rotation - cart. axis [1,1,0]
     i       25
          inversion
     8S6     41   43   44   42   48   45   46   47
          inv. 120 deg rotation - cart. axis [-1,-1,-1]
     3s_h    26   28   27
          inv. 180 deg rotation - cart. axis [0,0,1]
     6S4     31   32   39   40   36   35
          inv.  90 deg rotation - cart. axis [0,0,-1]
     6s_d    29   30   38   37   34   33
          inv. 180 deg rotation - cart. axis [1,1,0]

   Cartesian axes

     site n.     atom                  positions (alat units)
         1           Cu  tau(   1) = (   0.0000000   0.0000000   0.0000000  )
         2           Cu  tau(   2) = (   0.0000000   0.5000000   0.5000000  )
         3           Cu  tau(   3) = (   0.5000000   0.0000000   0.5000000  )
         4           Cu  tau(   4) = (   0.5000000   0.5000000   0.0000000  )

   Crystallographic axes

     site n.     atom                  positions (cryst. coord.)
         1           Cu  tau(   1) = (  0.0000000  0.0000000  0.0000000  )
         2           Cu  tau(   2) = (  0.0000000  0.5000000  0.5000000  )
         3           Cu  tau(   3) = (  0.5000000  0.0000000  0.5000000  )
         4           Cu  tau(   4) = (  0.5000000  0.5000000  0.0000000  )

     number of k points=   120  Gaussian smearing, width (Ry)=  0.0005
                       cart. coord. in units 2pi/alat
        k(    1) = (   0.0000000   0.0000000   0.0000000), wk =   0.0003644
        k(    2) = (   0.0000000   0.0000000   0.0714286), wk =   0.0021866
        k(    3) = (   0.0000000   0.0000000   0.1428571), wk =   0.0021866
        k(    4) = (   0.0000000   0.0000000   0.2142857), wk =   0.0021866
        k(    5) = (   0.0000000   0.0000000   0.2857143), wk =   0.0021866
        k(    6) = (   0.0000000   0.0000000   0.3571429), wk =   0.0021866
        k(    7) = (   0.0000000   0.0000000   0.4285714), wk =   0.0021866
        k(    8) = (   0.0000000   0.0000000  -0.5000000), wk =   0.0010933
        k(    9) = (   0.0000000   0.0714286   0.0714286), wk =   0.0043732
        k(   10) = (   0.0000000   0.0714286   0.1428571), wk =   0.0087464
        k(   11) = (   0.0000000   0.0714286   0.2142857), wk =   0.0087464
        k(   12) = (   0.0000000   0.0714286   0.2857143), wk =   0.0087464
        k(   13) = (   0.0000000   0.0714286   0.3571429), wk =   0.0087464
        k(   14) = (   0.0000000   0.0714286   0.4285714), wk =   0.0087464
        k(   15) = (   0.0000000   0.0714286  -0.5000000), wk =   0.0043732
        k(   16) = (   0.0000000   0.1428571   0.1428571), wk =   0.0043732
        k(   17) = (   0.0000000   0.1428571   0.2142857), wk =   0.0087464
        k(   18) = (   0.0000000   0.1428571   0.2857143), wk =   0.0087464
        k(   19) = (   0.0000000   0.1428571   0.3571429), wk =   0.0087464
        k(   20) = (   0.0000000   0.1428571   0.4285714), wk =   0.0087464
        k(   21) = (   0.0000000   0.1428571  -0.5000000), wk =   0.0043732
        k(   22) = (   0.0000000   0.2142857   0.2142857), wk =   0.0043732
        k(   23) = (   0.0000000   0.2142857   0.2857143), wk =   0.0087464
        k(   24) = (   0.0000000   0.2142857   0.3571429), wk =   0.0087464
        k(   25) = (   0.0000000   0.2142857   0.4285714), wk =   0.0087464
        k(   26) = (   0.0000000   0.2142857  -0.5000000), wk =   0.0043732
        k(   27) = (   0.0000000   0.2857143   0.2857143), wk =   0.0043732
        k(   28) = (   0.0000000   0.2857143   0.3571429), wk =   0.0087464
        k(   29) = (   0.0000000   0.2857143   0.4285714), wk =   0.0087464
        k(   30) = (   0.0000000   0.2857143  -0.5000000), wk =   0.0043732
        k(   31) = (   0.0000000   0.3571429   0.3571429), wk =   0.0043732
        k(   32) = (   0.0000000   0.3571429   0.4285714), wk =   0.0087464
        k(   33) = (   0.0000000   0.3571429  -0.5000000), wk =   0.0043732
        k(   34) = (   0.0000000   0.4285714   0.4285714), wk =   0.0043732
        k(   35) = (   0.0000000   0.4285714  -0.5000000), wk =   0.0043732
        k(   36) = (   0.0000000  -0.5000000  -0.5000000), wk =   0.0010933
        k(   37) = (   0.0714286   0.0714286   0.0714286), wk =   0.0029155
        k(   38) = (   0.0714286   0.0714286   0.1428571), wk =   0.0087464
        k(   39) = (   0.0714286   0.0714286   0.2142857), wk =   0.0087464
        k(   40) = (   0.0714286   0.0714286   0.2857143), wk =   0.0087464
        k(   41) = (   0.0714286   0.0714286   0.3571429), wk =   0.0087464
        k(   42) = (   0.0714286   0.0714286   0.4285714), wk =   0.0087464
        k(   43) = (   0.0714286   0.0714286  -0.5000000), wk =   0.0043732
        k(   44) = (   0.0714286   0.1428571   0.1428571), wk =   0.0087464
        k(   45) = (   0.0714286   0.1428571   0.2142857), wk =   0.0174927
        k(   46) = (   0.0714286   0.1428571   0.2857143), wk =   0.0174927
        k(   47) = (   0.0714286   0.1428571   0.3571429), wk =   0.0174927
        k(   48) = (   0.0714286   0.1428571   0.4285714), wk =   0.0174927
        k(   49) = (   0.0714286   0.1428571  -0.5000000), wk =   0.0087464
        k(   50) = (   0.0714286   0.2142857   0.2142857), wk =   0.0087464
        k(   51) = (   0.0714286   0.2142857   0.2857143), wk =   0.0174927
        k(   52) = (   0.0714286   0.2142857   0.3571429), wk =   0.0174927
        k(   53) = (   0.0714286   0.2142857   0.4285714), wk =   0.0174927
        k(   54) = (   0.0714286   0.2142857  -0.5000000), wk =   0.0087464
        k(   55) = (   0.0714286   0.2857143   0.2857143), wk =   0.0087464
        k(   56) = (   0.0714286   0.2857143   0.3571429), wk =   0.0174927
        k(   57) = (   0.0714286   0.2857143   0.4285714), wk =   0.0174927
        k(   58) = (   0.0714286   0.2857143  -0.5000000), wk =   0.0087464
        k(   59) = (   0.0714286   0.3571429   0.3571429), wk =   0.0087464
        k(   60) = (   0.0714286   0.3571429   0.4285714), wk =   0.0174927
[...]
        k(  106) = (   0.2857143   0.3571429   0.4285714), wk =   0.0174927
        k(  107) = (   0.2857143   0.3571429  -0.5000000), wk =   0.0087464
        k(  108) = (   0.2857143   0.4285714   0.4285714), wk =   0.0087464
        k(  109) = (   0.2857143   0.4285714  -0.5000000), wk =   0.0087464
        k(  110) = (   0.2857143  -0.5000000  -0.5000000), wk =   0.0021866
        k(  111) = (   0.3571429   0.3571429   0.3571429), wk =   0.0029155
        k(  112) = (   0.3571429   0.3571429   0.4285714), wk =   0.0087464
        k(  113) = (   0.3571429   0.3571429  -0.5000000), wk =   0.0043732
        k(  114) = (   0.3571429   0.4285714   0.4285714), wk =   0.0087464
        k(  115) = (   0.3571429   0.4285714  -0.5000000), wk =   0.0087464
        k(  116) = (   0.3571429  -0.5000000  -0.5000000), wk =   0.0021866
        k(  117) = (   0.4285714   0.4285714   0.4285714), wk =   0.0029155
        k(  118) = (   0.4285714   0.4285714  -0.5000000), wk =   0.0043732
        k(  119) = (   0.4285714  -0.5000000  -0.5000000), wk =   0.0021866
        k(  120) = (  -0.5000000  -0.5000000  -0.5000000), wk =   0.0003644

                       cryst. coord.
        k(    1) = (   0.0000000   0.0000000   0.0000000), wk =   0.0003644
        k(    2) = (   0.0000000   0.0000000   0.0714286), wk =   0.0021866
        k(    3) = (   0.0000000   0.0000000   0.1428571), wk =   0.0021866
        k(    4) = (   0.0000000   0.0000000   0.2142857), wk =   0.0021866
        k(    5) = (   0.0000000   0.0000000   0.2857143), wk =   0.0021866
        k(    6) = (   0.0000000   0.0000000   0.3571429), wk =   0.0021866
        k(    7) = (   0.0000000   0.0000000   0.4285714), wk =   0.0021866
        k(    8) = (   0.0000000   0.0000000  -0.5000000), wk =   0.0010933
        k(    9) = (   0.0000000   0.0714286   0.0714286), wk =   0.0043732
        k(   10) = (   0.0000000   0.0714286   0.1428571), wk =   0.0087464
        k(   11) = (   0.0000000   0.0714286   0.2142857), wk =   0.0087464
        k(   12) = (   0.0000000   0.0714286   0.2857143), wk =   0.0087464
        k(   13) = (   0.0000000   0.0714286   0.3571429), wk =   0.0087464
        k(   14) = (   0.0000000   0.0714286   0.4285714), wk =   0.0087464
        k(   15) = (   0.0000000   0.0714286  -0.5000000), wk =   0.0043732
        k(   16) = (   0.0000000   0.1428571   0.1428571), wk =   0.0043732
        k(   17) = (   0.0000000   0.1428571   0.2142857), wk =   0.0087464
        k(   18) = (   0.0000000   0.1428571   0.2857143), wk =   0.0087464
        k(   19) = (   0.0000000   0.1428571   0.3571429), wk =   0.0087464
        k(   20) = (   0.0000000   0.1428571   0.4285714), wk =   0.0087464
        k(   21) = (   0.0000000   0.1428571  -0.5000000), wk =   0.0043732
        k(   22) = (   0.0000000   0.2142857   0.2142857), wk =   0.0043732
        k(   23) = (   0.0000000   0.2142857   0.2857143), wk =   0.0087464
        k(   24) = (   0.0000000   0.2142857   0.3571429), wk =   0.0087464
        k(   25) = (   0.0000000   0.2142857   0.4285714), wk =   0.0087464
        k(   26) = (   0.0000000   0.2142857  -0.5000000), wk =   0.0043732
        k(   27) = (   0.0000000   0.2857143   0.2857143), wk =   0.0043732
        k(   28) = (   0.0000000   0.2857143   0.3571429), wk =   0.0087464
        k(   29) = (   0.0000000   0.2857143   0.4285714), wk =   0.0087464
        k(   30) = (   0.0000000   0.2857143  -0.5000000), wk =   0.0043732
        k(   31) = (   0.0000000   0.3571429   0.3571429), wk =   0.0043732
        k(   32) = (   0.0000000   0.3571429   0.4285714), wk =   0.0087464
        k(   33) = (   0.0000000   0.3571429  -0.5000000), wk =   0.0043732
        k(   34) = (   0.0000000   0.4285714   0.4285714), wk =   0.0043732
        k(   35) = (   0.0000000   0.4285714  -0.5000000), wk =   0.0043732
        k(   36) = (   0.0000000  -0.5000000  -0.5000000), wk =   0.0010933
        k(   37) = (   0.0714286   0.0714286   0.0714286), wk =   0.0029155
        k(   38) = (   0.0714286   0.0714286   0.1428571), wk =   0.0087464
        k(   39) = (   0.0714286   0.0714286   0.2142857), wk =   0.0087464
        k(   40) = (   0.0714286   0.0714286   0.2857143), wk =   0.0087464
        k(   41) = (   0.0714286   0.0714286   0.3571429), wk =   0.0087464
        k(   42) = (   0.0714286   0.0714286   0.4285714), wk =   0.0087464
        k(   43) = (   0.0714286   0.0714286  -0.5000000), wk =   0.0043732
        k(   44) = (   0.0714286   0.1428571   0.1428571), wk =   0.0087464
        k(   45) = (   0.0714286   0.1428571   0.2142857), wk =   0.0174927
        k(   46) = (   0.0714286   0.1428571   0.2857143), wk =   0.0174927
        k(   47) = (   0.0714286   0.1428571   0.3571429), wk =   0.0174927
        k(   48) = (   0.0714286   0.1428571   0.4285714), wk =   0.0174927
        k(   49) = (   0.0714286   0.1428571  -0.5000000), wk =   0.0087464
        k(   50) = (   0.0714286   0.2142857   0.2142857), wk =   0.0087464
        k(   51) = (   0.0714286   0.2142857   0.2857143), wk =   0.0174927
        k(   52) = (   0.0714286   0.2142857   0.3571429), wk =   0.0174927
        k(   53) = (   0.0714286   0.2142857   0.4285714), wk =   0.0174927
        k(   54) = (   0.0714286   0.2142857  -0.5000000), wk =   0.0087464
        k(   55) = (   0.0714286   0.2857143   0.2857143), wk =   0.0087464
        k(   56) = (   0.0714286   0.2857143   0.3571429), wk =   0.0174927
        k(   57) = (   0.0714286   0.2857143   0.4285714), wk =   0.0174927
        k(   58) = (   0.0714286   0.2857143  -0.5000000), wk =   0.0087464
        k(   59) = (   0.0714286   0.3571429   0.3571429), wk =   0.0087464
        k(   60) = (   0.0714286   0.3571429   0.4285714), wk =   0.0174927
[...]
        k(  106) = (   0.2857143   0.3571429   0.4285714), wk =   0.0174927
        k(  107) = (   0.2857143   0.3571429  -0.5000000), wk =   0.0087464
        k(  108) = (   0.2857143   0.4285714   0.4285714), wk =   0.0087464
        k(  109) = (   0.2857143   0.4285714  -0.5000000), wk =   0.0087464
        k(  110) = (   0.2857143  -0.5000000  -0.5000000), wk =   0.0021866
        k(  111) = (   0.3571429   0.3571429   0.3571429), wk =   0.0029155
        k(  112) = (   0.3571429   0.3571429   0.4285714), wk =   0.0087464
        k(  113) = (   0.3571429   0.3571429  -0.5000000), wk =   0.0043732
        k(  114) = (   0.3571429   0.4285714   0.4285714), wk =   0.0087464
        k(  115) = (   0.3571429   0.4285714  -0.5000000), wk =   0.0087464
        k(  116) = (   0.3571429  -0.5000000  -0.5000000), wk =   0.0021866
        k(  117) = (   0.4285714   0.4285714   0.4285714), wk =   0.0029155
        k(  118) = (   0.4285714   0.4285714  -0.5000000), wk =   0.0043732
        k(  119) = (   0.4285714  -0.5000000  -0.5000000), wk =   0.0021866
        k(  120) = (  -0.5000000  -0.5000000  -0.5000000), wk =   0.0003644

     Initial potential from superposition of free atoms

     starting charge      75.9989, renormalised to      76.0000
     Starting wfcs are   40 randomized atomic wfcs +    6 random wfcs
     Checking if some PAW data can be deallocated...

     Self-consistent Calculation

     iteration #  1     ecut=   130.00 Ry     beta= 0.70
     Davidson diagonalization with overlap

     ethr =  1.00E-02,  avg # of iterations =  3.3

     total energy              =   -1946.50197743 Ry
     estimated scf accuracy    <       1.93086002 Ry

     total magnetization       =     1.40 Bohr mag/cell
     absolute magnetization    =     1.79 Bohr mag/cell

[...]

     total energy              =   -1947.55190546 Ry
     estimated scf accuracy    <       0.00000002 Ry

[...]

     iteration # 12     ecut=   130.00 Ry     beta= 0.70
     Davidson diagonalization with overlap

     ethr =  2.79E-11,  avg # of iterations =  2.0

     Magnetic moment per site  (integrated on atomic sphere of radius R)
     atom   1 (R=0.292)  charge= 17.8260  magn=  0.0000
     atom   2 (R=0.292)  charge= 17.8260  magn=  0.0000
     atom   3 (R=0.292)  charge= 17.8260  magn=  0.0000
     atom   4 (R=0.292)  charge= 17.8260  magn=  0.0000

     End of self-consistent calculation

 ------ SPIN UP ------------

          k = 0.0000 0.0000 0.0000 (  8217 PWs)   bands (ev):

   -96.6059 -96.5886 -96.5886 -96.5886 -54.0196 -54.0196 -54.0196 -53.9617
   -53.9617 -53.9617 -53.9617 -53.9617 -53.9617 -53.9226 -53.9226 -53.9226
     6.6501  11.1569  11.1569  11.1569  11.6188  11.6188  11.6188  13.0028
    13.0028  13.0028  13.8189  13.8189  14.3646  14.3646  14.3646  14.5248
    14.5248  14.5248  14.5248  14.5248  14.5248  17.4433  17.4433  17.4433
    22.9666  22.9666  22.9666  28.9423  28.9423  28.9423

     occupation numbers
     1.0000   1.0000   1.0000   1.0000   1.0000   1.0000   1.0000   1.0000
     1.0000   1.0000   1.0000   1.0000   1.0000   1.0000   1.0000   1.0000
     1.0000   1.0000   1.0000   1.0000   1.0000   1.0000   1.0000   1.0000
     1.0000   1.0000   1.0000   1.0000   1.0000   1.0000   1.0000   1.0000
     1.0000   1.0000   1.0000   1.0000   1.0000   0.0000   0.0000   0.0000
     0.0000   0.0000   0.0000   0.0000   0.0000   0.0000

[...]

          k =-0.5000-0.5000-0.5000 (  8144 PWs)   bands (ev):

[...]

 ------ SPIN DOWN ----------

[...]

          k = 0.4286-0.5000-0.5000 (  8104 PWs)   bands (ev):

[...]

          k =-0.5000-0.5000-0.5000 (  8144 PWs)   bands (ev):

   -96.5929 -96.5929 -96.5929 -96.5929 -54.0244 -54.0244 -54.0244 -54.0244
   -53.9380 -53.9380 -53.9380 -53.9380 -53.9380 -53.9380 -53.9380 -53.9380
    10.9454  10.9454  10.9454  10.9454  12.9697  12.9697  12.9697  12.9697
    12.9697  12.9697  12.9697  12.9697  14.3829  14.3829  14.3829  14.3829
    14.3829  14.3829  14.3829  14.3829  14.9699  14.9699  14.9699  14.9699
    19.6443  19.6443  19.6443  19.6443  37.0119  37.0119

     occupation numbers
     1.0000   1.0000   1.0000   1.0000   1.0000   1.0000   1.0000   1.0000
     1.0000   1.0000   1.0000   1.0000   1.0000   1.0000   1.0000   1.0000
     1.0000   1.0000   1.0000   1.0000   1.0000   1.0000   1.0000   1.0000
     1.0000   1.0000   1.0000   1.0000   1.0000   1.0000   1.0000   1.0000
     1.0000   1.0000   1.0000   1.0000   1.0000   1.0000   1.0000   1.0000
     0.0000   0.0000   0.0000   0.0000   0.0000   0.0000

     the Fermi energy is    15.9839 ev

!    total energy              =   -1947.55190546 Ry
     total all-electron energy =    -13239.898320 Ry
     estimated scf accuracy    <          2.9E-10 Ry
     smearing contrib. (-TS)   =      -0.00000477 Ry
     internal energy E=F+TS    =   -1947.55190070 Ry

     The total energy is F=E-TS. E is the sum of the following terms:
     one-electron contribution =    -992.21907408 Ry
     hartree contribution      =     558.26902493 Ry
     xc contribution           =    -153.21681168 Ry
     ewald contribution        =    -964.96224602 Ry
     one-center paw contrib.   =    -395.42279384 Ry
      -> PAW hartree energy AE =     319.26139859 Ry
      -> PAW hartree energy PS =    -321.23557807 Ry
      -> PAW xc energy AE      =    -133.83486944 Ry
      -> PAW xc energy PS      =      36.95335203 Ry
      -> total E_H with PAW    =     556.29484544 Ry
      -> total E_XC with PAW   =    -250.09832909 Ry

     total magnetization       =     0.00 Bohr mag/cell
     absolute magnetization    =     0.00 Bohr mag/cell

     convergence has been achieved in  12 iterations

     Writing all to output data dir ./out/Cu.save/

     General routines

     Parallel routines

     PAW routines

   This run was terminated on:  23:16:22  15Feb2024

   JOB DONE.