     Program PWSCF v.7.3.1 starts on 16Apr2024 at  6:47: 0

     Reading input from scf.k-14.in

     Current dimensions of program PWSCF are:
     Max number of different atomic species (ntypx) = 10
     Max number of k-points (npk) =  40000
     Max angular momentum in pseudopotentials (lmaxx) =  4
     file Fe.pbe-spn-kjpaw_psl.1.0.0.UPF: wavefunction(s)  3P 3D renormalized
     Found identity + ( -0.5000 -0.5000 -0.5000) symmetry
     This is a supercell, fractional translations are disabled
     Message from routine setup:
     using ibrav=0 with symmetry is DISCOURAGED, use correct ibrav instead

     R & G space division:  proc/nbgrp/npool/nimage =      10
     Subspace diagonalization in iterative solution of the eigenvalue problem:
     a serial algorithm will be used

     Using Slab Decomposition

     bravais-lattice index     =            0
     lattice parameter (alat)  =       5.4104  a.u.
     unit-cell volume          =     158.3714 (a.u.)^3
     number of atoms/cell      =            2
     number of atomic types    =            1
     number of electrons       =        32.00
     number of Kohn-Sham states=           20
     kinetic-energy cutoff     =     100.0000  Ry
     charge density cutoff     =     700.0000  Ry
     scf convergence threshold =      4.0E-10
     mixing beta               =       0.4000
     number of iterations used =            8  plain     mixing
     Exchange-correlation= SLA  PW   PBX  PBC
                           (   1   4   3   4   0   0   0)

     celldm(1)=   5.410353  celldm(2)=   0.000000  celldm(3)=   0.000000
     celldm(4)=   0.000000  celldm(5)=   0.000000  celldm(6)=   0.000000

     crystal axes: (cart. coord. in units of alat)
               a(1) = (   1.000000   0.000000   0.000000 )
               a(2) = (   0.000000   1.000000   0.000000 )
               a(3) = (   0.000000   0.000000   1.000000 )

     reciprocal axes: (cart. coord. in units 2 pi/alat)
               b(1) = (  1.000000  0.000000  0.000000 )
               b(2) = (  0.000000  1.000000  0.000000 )
               b(3) = (  0.000000  0.000000  1.000000 )

     PseudoPot. # 1 for Fe read from file:
     /home/abdul/git_repo/ZnS/pseudo/QE/Fe.pbe-spn-kjpaw_psl.1.0.0.UPF
     MD5 check sum: fc81f059e5c5069939230b1155715ae8
     Pseudo is Projector augmented-wave + core cor, Zval = 16.0
     Generated using &quot;atomic&quot; code by A. Dal Corso  v.6.3
     Shape of augmentation charge: PSQ
     Using radial grid of 1191 points,  6 beta functions with:
                l(1) =   0
                l(2) =   0
                l(3) =   1
                l(4) =   1
                l(5) =   2
                l(6) =   2
     Q(r) pseudized with 0 coefficients

     atomic species   valence    mass     pseudopotential
     Fe               16.00    55.84500     Fe( 1.00)

     Starting magnetic structure
     atomic species   magnetization
     Fe              0.312

     48 Sym. Ops., with inversion, found

                                    s                        frac. trans.

      isym =  1     identity

 cryst.   s( 1) = (     1          0          0      )
                  (     0          1          0      )
                  (     0          0          1      )

 cart.    s( 1) = (  1.0000000  0.0000000  0.0000000 )
                  (  0.0000000  1.0000000  0.0000000 )
                  (  0.0000000  0.0000000  1.0000000 )

      isym =  2     180 deg rotation - cart. axis [0,0,1]

[...]

 cryst.   s( 9) = (     0          0          1      )
                  (     0         -1          0      )
                  (     1          0          0      )

 cart.    s( 9) = (  0.0000000  0.0000000  1.0000000 )
                  (  0.0000000 -1.0000000  0.0000000 )
                  (  1.0000000  0.0000000  0.0000000 )

[...]

 cryst.   s(10) = (     0          0         -1      )
                  (     0         -1          0      )
                  (    -1          0          0      )

 cart.    s(10) = (  0.0000000  0.0000000 -1.0000000 )
                  (  0.0000000 -1.0000000  0.0000000 )
                  ( -1.0000000  0.0000000  0.0000000 )

[...]

      isym = 24     120 deg rotation - cart. axis [-1,-1,1]

[...]

      isym = 25     inversion

[...]

      isym = 26     inv. 180 deg rotation - cart. axis [0,0,1]

[...]

      isym = 48     inv. 120 deg rotation - cart. axis [-1,-1,1]

 cryst.   s(48) = (     0         -1          0      )
                  (     0          0          1      )
                  (     1          0          0      )

 cart.    s(48) = (  0.0000000  0.0000000  1.0000000 )
                  ( -1.0000000  0.0000000  0.0000000 )
                  (  0.0000000  1.0000000  0.0000000 )

   Cartesian axes

     site n.     atom                  positions (alat units)
         1        Fe     tau(   1) = (   0.0000000   0.0000000   0.0000000  )
         2        Fe     tau(   2) = (   0.5000000   0.5000000   0.5000000  )

   Crystallographic axes

     site n.     atom                  positions (cryst. coord.)
         1        Fe     tau(   1) = (  0.0000000  0.0000000  0.0000000  )
         2        Fe     tau(   2) = (  0.5000000  0.5000000  0.5000000  )

     number of k points=   120  Gaussian smearing, width (Ry)=  0.0100
                       cart. coord. in units 2pi/alat
        k(    1) = (   0.0000000   0.0000000   0.0000000), wk =   0.0003644
        k(    2) = (   0.0000000   0.0000000   0.0714286), wk =   0.0021866
        k(    3) = (   0.0000000   0.0000000   0.1428571), wk =   0.0021866
        k(    4) = (   0.0000000   0.0000000   0.2142857), wk =   0.0021866
        k(    5) = (   0.0000000   0.0000000   0.2857143), wk =   0.0021866
        k(    6) = (   0.0000000   0.0000000   0.3571429), wk =   0.0021866
        k(    7) = (   0.0000000   0.0000000   0.4285714), wk =   0.0021866
        k(    8) = (   0.0000000   0.0000000  -0.5000000), wk =   0.0010933
        k(    9) = (   0.0000000   0.0714286   0.0714286), wk =   0.0043732
        k(   10) = (   0.0000000   0.0714286   0.1428571), wk =   0.0087464
        k(   11) = (   0.0000000   0.0714286   0.2142857), wk =   0.0087464
        k(   12) = (   0.0000000   0.0714286   0.2857143), wk =   0.0087464
        k(   13) = (   0.0000000   0.0714286   0.3571429), wk =   0.0087464
        k(   14) = (   0.0000000   0.0714286   0.4285714), wk =   0.0087464
        k(   15) = (   0.0000000   0.0714286  -0.5000000), wk =   0.0043732
        k(   16) = (   0.0000000   0.1428571   0.1428571), wk =   0.0043732
        k(   17) = (   0.0000000   0.1428571   0.2142857), wk =   0.0087464
        k(   18) = (   0.0000000   0.1428571   0.2857143), wk =   0.0087464
        k(   19) = (   0.0000000   0.1428571   0.3571429), wk =   0.0087464
        k(   20) = (   0.0000000   0.1428571   0.4285714), wk =   0.0087464
        k(   21) = (   0.0000000   0.1428571  -0.5000000), wk =   0.0043732
        k(   22) = (   0.0000000   0.2142857   0.2142857), wk =   0.0043732
        k(   23) = (   0.0000000   0.2142857   0.2857143), wk =   0.0087464
        k(   24) = (   0.0000000   0.2142857   0.3571429), wk =   0.0087464
        k(   25) = (   0.0000000   0.2142857   0.4285714), wk =   0.0087464
        k(   26) = (   0.0000000   0.2142857  -0.5000000), wk =   0.0043732
        k(   27) = (   0.0000000   0.2857143   0.2857143), wk =   0.0043732
        k(   28) = (   0.0000000   0.2857143   0.3571429), wk =   0.0087464
        k(   29) = (   0.0000000   0.2857143   0.4285714), wk =   0.0087464
        k(   30) = (   0.0000000   0.2857143  -0.5000000), wk =   0.0043732
        k(   31) = (   0.0000000   0.3571429   0.3571429), wk =   0.0043732
        k(   32) = (   0.0000000   0.3571429   0.4285714), wk =   0.0087464
        k(   33) = (   0.0000000   0.3571429  -0.5000000), wk =   0.0043732
        k(   34) = (   0.0000000   0.4285714   0.4285714), wk =   0.0043732
        k(   35) = (   0.0000000   0.4285714  -0.5000000), wk =   0.0043732
        k(   36) = (   0.0000000  -0.5000000  -0.5000000), wk =   0.0010933
        k(   37) = (   0.0714286   0.0714286   0.0714286), wk =   0.0029155
        k(   38) = (   0.0714286   0.0714286   0.1428571), wk =   0.0087464
        k(   39) = (   0.0714286   0.0714286   0.2142857), wk =   0.0087464
        k(   40) = (   0.0714286   0.0714286   0.2857143), wk =   0.0087464
        k(   41) = (   0.0714286   0.0714286   0.3571429), wk =   0.0087464
        k(   42) = (   0.0714286   0.0714286   0.4285714), wk =   0.0087464
        k(   43) = (   0.0714286   0.0714286  -0.5000000), wk =   0.0043732
        k(   44) = (   0.0714286   0.1428571   0.1428571), wk =   0.0087464
        k(   45) = (   0.0714286   0.1428571   0.2142857), wk =   0.0174927
        k(   46) = (   0.0714286   0.1428571   0.2857143), wk =   0.0174927
        k(   47) = (   0.0714286   0.1428571   0.3571429), wk =   0.0174927
        k(   48) = (   0.0714286   0.1428571   0.4285714), wk =   0.0174927
        k(   49) = (   0.0714286   0.1428571  -0.5000000), wk =   0.0087464
        k(   50) = (   0.0714286   0.2142857   0.2142857), wk =   0.0087464
        k(   51) = (   0.0714286   0.2142857   0.2857143), wk =   0.0174927
        k(   52) = (   0.0714286   0.2142857   0.3571429), wk =   0.0174927
        k(   53) = (   0.0714286   0.2142857   0.4285714), wk =   0.0174927
        k(   54) = (   0.0714286   0.2142857  -0.5000000), wk =   0.0087464
        k(   55) = (   0.0714286   0.2857143   0.2857143), wk =   0.0087464
        k(   56) = (   0.0714286   0.2857143   0.3571429), wk =   0.0174927
        k(   57) = (   0.0714286   0.2857143   0.4285714), wk =   0.0174927
        k(   58) = (   0.0714286   0.2857143  -0.5000000), wk =   0.0087464
        k(   59) = (   0.0714286   0.3571429   0.3571429), wk =   0.0087464
        k(   60) = (   0.0714286   0.3571429   0.4285714), wk =   0.0174927
[...]
        k(  106) = (   0.2857143   0.3571429   0.4285714), wk =   0.0174927
        k(  107) = (   0.2857143   0.3571429  -0.5000000), wk =   0.0087464
        k(  108) = (   0.2857143   0.4285714   0.4285714), wk =   0.0087464
        k(  109) = (   0.2857143   0.4285714  -0.5000000), wk =   0.0087464
        k(  110) = (   0.2857143  -0.5000000  -0.5000000), wk =   0.0021866
        k(  111) = (   0.3571429   0.3571429   0.3571429), wk =   0.0029155
        k(  112) = (   0.3571429   0.3571429   0.4285714), wk =   0.0087464
        k(  113) = (   0.3571429   0.3571429  -0.5000000), wk =   0.0043732
        k(  114) = (   0.3571429   0.4285714   0.4285714), wk =   0.0087464
        k(  115) = (   0.3571429   0.4285714  -0.5000000), wk =   0.0087464
        k(  116) = (   0.3571429  -0.5000000  -0.5000000), wk =   0.0021866
        k(  117) = (   0.4285714   0.4285714   0.4285714), wk =   0.0029155
        k(  118) = (   0.4285714   0.4285714  -0.5000000), wk =   0.0043732
        k(  119) = (   0.4285714  -0.5000000  -0.5000000), wk =   0.0021866
        k(  120) = (  -0.5000000  -0.5000000  -0.5000000), wk =   0.0003644

                       cryst. coord.
        k(    1) = (   0.0000000   0.0000000   0.0000000), wk =   0.0003644
        k(    2) = (   0.0000000   0.0000000   0.0714286), wk =   0.0021866
        k(    3) = (   0.0000000   0.0000000   0.1428571), wk =   0.0021866
        k(    4) = (   0.0000000   0.0000000   0.2142857), wk =   0.0021866
        k(    5) = (   0.0000000   0.0000000   0.2857143), wk =   0.0021866
        k(    6) = (   0.0000000   0.0000000   0.3571429), wk =   0.0021866
        k(    7) = (   0.0000000   0.0000000   0.4285714), wk =   0.0021866
        k(    8) = (   0.0000000   0.0000000  -0.5000000), wk =   0.0010933
        k(    9) = (   0.0000000   0.0714286   0.0714286), wk =   0.0043732
        k(   10) = (   0.0000000   0.0714286   0.1428571), wk =   0.0087464
        k(   11) = (   0.0000000   0.0714286   0.2142857), wk =   0.0087464
        k(   12) = (   0.0000000   0.0714286   0.2857143), wk =   0.0087464
        k(   13) = (   0.0000000   0.0714286   0.3571429), wk =   0.0087464
        k(   14) = (   0.0000000   0.0714286   0.4285714), wk =   0.0087464
        k(   15) = (   0.0000000   0.0714286  -0.5000000), wk =   0.0043732
        k(   16) = (   0.0000000   0.1428571   0.1428571), wk =   0.0043732
        k(   17) = (   0.0000000   0.1428571   0.2142857), wk =   0.0087464
        k(   18) = (   0.0000000   0.1428571   0.2857143), wk =   0.0087464
        k(   19) = (   0.0000000   0.1428571   0.3571429), wk =   0.0087464
        k(   20) = (   0.0000000   0.1428571   0.4285714), wk =   0.0087464
        k(   21) = (   0.0000000   0.1428571  -0.5000000), wk =   0.0043732
        k(   22) = (   0.0000000   0.2142857   0.2142857), wk =   0.0043732
        k(   23) = (   0.0000000   0.2142857   0.2857143), wk =   0.0087464
        k(   24) = (   0.0000000   0.2142857   0.3571429), wk =   0.0087464
        k(   25) = (   0.0000000   0.2142857   0.4285714), wk =   0.0087464
        k(   26) = (   0.0000000   0.2142857  -0.5000000), wk =   0.0043732
        k(   27) = (   0.0000000   0.2857143   0.2857143), wk =   0.0043732
        k(   28) = (   0.0000000   0.2857143   0.3571429), wk =   0.0087464
        k(   29) = (   0.0000000   0.2857143   0.4285714), wk =   0.0087464
        k(   30) = (   0.0000000   0.2857143  -0.5000000), wk =   0.0043732
        k(   31) = (   0.0000000   0.3571429   0.3571429), wk =   0.0043732
        k(   32) = (   0.0000000   0.3571429   0.4285714), wk =   0.0087464
        k(   33) = (   0.0000000   0.3571429  -0.5000000), wk =   0.0043732
        k(   34) = (   0.0000000   0.4285714   0.4285714), wk =   0.0043732
        k(   35) = (   0.0000000   0.4285714  -0.5000000), wk =   0.0043732
        k(   36) = (   0.0000000  -0.5000000  -0.5000000), wk =   0.0010933
        k(   37) = (   0.0714286   0.0714286   0.0714286), wk =   0.0029155
        k(   38) = (   0.0714286   0.0714286   0.1428571), wk =   0.0087464
        k(   39) = (   0.0714286   0.0714286   0.2142857), wk =   0.0087464
        k(   40) = (   0.0714286   0.0714286   0.2857143), wk =   0.0087464
        k(   41) = (   0.0714286   0.0714286   0.3571429), wk =   0.0087464
        k(   42) = (   0.0714286   0.0714286   0.4285714), wk =   0.0087464
        k(   43) = (   0.0714286   0.0714286  -0.5000000), wk =   0.0043732
        k(   44) = (   0.0714286   0.1428571   0.1428571), wk =   0.0087464
        k(   45) = (   0.0714286   0.1428571   0.2142857), wk =   0.0174927
        k(   46) = (   0.0714286   0.1428571   0.2857143), wk =   0.0174927
        k(   47) = (   0.0714286   0.1428571   0.3571429), wk =   0.0174927
        k(   48) = (   0.0714286   0.1428571   0.4285714), wk =   0.0174927
        k(   49) = (   0.0714286   0.1428571  -0.5000000), wk =   0.0087464
        k(   50) = (   0.0714286   0.2142857   0.2142857), wk =   0.0087464
        k(   51) = (   0.0714286   0.2142857   0.2857143), wk =   0.0174927
        k(   52) = (   0.0714286   0.2142857   0.3571429), wk =   0.0174927
        k(   53) = (   0.0714286   0.2142857   0.4285714), wk =   0.0174927
        k(   54) = (   0.0714286   0.2142857  -0.5000000), wk =   0.0087464
        k(   55) = (   0.0714286   0.2857143   0.2857143), wk =   0.0087464
        k(   56) = (   0.0714286   0.2857143   0.3571429), wk =   0.0174927
        k(   57) = (   0.0714286   0.2857143   0.4285714), wk =   0.0174927
        k(   58) = (   0.0714286   0.2857143  -0.5000000), wk =   0.0087464
        k(   59) = (   0.0714286   0.3571429   0.3571429), wk =   0.0087464
        k(   60) = (   0.0714286   0.3571429   0.4285714), wk =   0.0174927
[...]
        k(  106) = (   0.2857143   0.3571429   0.4285714), wk =   0.0174927
        k(  107) = (   0.2857143   0.3571429  -0.5000000), wk =   0.0087464
        k(  108) = (   0.2857143   0.4285714   0.4285714), wk =   0.0087464
        k(  109) = (   0.2857143   0.4285714  -0.5000000), wk =   0.0087464
        k(  110) = (   0.2857143  -0.5000000  -0.5000000), wk =   0.0021866
        k(  111) = (   0.3571429   0.3571429   0.3571429), wk =   0.0029155
        k(  112) = (   0.3571429   0.3571429   0.4285714), wk =   0.0087464
        k(  113) = (   0.3571429   0.3571429  -0.5000000), wk =   0.0043732
        k(  114) = (   0.3571429   0.4285714   0.4285714), wk =   0.0087464
        k(  115) = (   0.3571429   0.4285714  -0.5000000), wk =   0.0087464
        k(  116) = (   0.3571429  -0.5000000  -0.5000000), wk =   0.0021866
        k(  117) = (   0.4285714   0.4285714   0.4285714), wk =   0.0029155
        k(  118) = (   0.4285714   0.4285714  -0.5000000), wk =   0.0043732
        k(  119) = (   0.4285714  -0.5000000  -0.5000000), wk =   0.0021866
        k(  120) = (  -0.5000000  -0.5000000  -0.5000000), wk =   0.0003644

     The initial density is read from file :
     ./out/Fe.save/charge-density

     negative rho (up, down):  0.000E+00 1.159E-04
     Wavefunctions not found or not readable, recomputing them from scratch
     Starting wfcs are   20 randomized atomic wfcs
     Checking if some PAW data can be deallocated...

     Self-consistent Calculation

     iteration #  1     ecut=   100.00 Ry     beta= 0.40
     Davidson diagonalization with overlap

     ethr =  1.00E-05,  avg # of iterations =  8.6

     Threshold (ethr) on eigenvalues was too large:
     Diagonalizing with lowered threshold

     Davidson diagonalization with overlap

[...]

     negative rho (up, down):  0.000E+00 1.160E-04

     total energy              =    -658.54061979 Ry
     estimated scf accuracy    <       0.00000068 Ry

     total magnetization       =     4.43 Bohr mag/cell
     absolute magnetization    =     4.68 Bohr mag/cell

[...]

     total energy              =    -658.54062011 Ry
     estimated scf accuracy    <          1.4E-09 Ry

[...]

     iteration #  8     ecut=   100.00 Ry     beta= 0.40
     Davidson diagonalization with overlap

     ethr =  4.30E-12,  avg # of iterations =  2.1

     negative rho (up, down):  0.000E+00 1.160E-04

     Magnetic moment per site  (integrated on atomic sphere of radius R)
     atom   1 (R=0.357)  charge= 14.4169  magn=  2.2696
     atom   2 (R=0.357)  charge= 14.4171  magn=  2.2697

     End of self-consistent calculation

 ------ SPIN UP ------------

          k = 0.0000 0.0000 0.0000 (  2721 PWs)   bands (ev):

   -70.4835 -70.3637 -36.5710 -36.5710 -36.5710 -36.3042 -36.3042 -36.3042
     9.2364  12.8826  12.8826  15.3427  15.3427  15.3427  16.4867  16.4867
    17.6717  17.6717  17.6717  27.1926

     occupation numbers
     1.0000   1.0000   1.0000   1.0000   1.0000   1.0000   1.0000   1.0000
     1.0000   1.0000   1.0000   1.0000   1.0000   1.0000   1.0000   1.0000
     0.1546   0.1546   0.1546   0.0000

[...]

          k =-0.5000-0.5000-0.5000 (  2608 PWs)   bands (ev):

[...]

 ------ SPIN DOWN ----------

[...]

          k = 0.4286-0.5000-0.5000 (  2656 PWs)   bands (ev):

[...]

          k =-0.5000-0.5000-0.5000 (  2608 PWs)   bands (ev):

   -67.7289 -67.7288 -33.8769 -33.8769 -33.8769 -33.8768 -33.8768 -33.8768
    15.8360  15.8360  15.8360  15.8360  15.8360  15.8360  19.5924  19.5924
    19.5925  19.5925  26.8570  26.8570

     occupation numbers
     1.0000   1.0000   1.0000   1.0000   1.0000   1.0000   1.0000   1.0000
     1.0000   1.0000   1.0000   1.0000   1.0000   1.0000   0.0000   0.0000
     0.0000   0.0000   0.0000   0.0000

     the Fermi energy is    17.5739 ev

!    total energy              =    -658.54062011 Ry
     total all-electron energy =     -5091.133686 Ry
     estimated scf accuracy    <          1.2E-11 Ry
     smearing contrib. (-TS)   =      -0.00124755 Ry
     internal energy E=F+TS    =    -658.53937256 Ry

     The total energy is F=E-TS. E is the sum of the following terms:
     one-electron contribution =    -225.20015926 Ry
     hartree contribution      =     132.11986202 Ry
     xc contribution           =     -55.48145485 Ry
     ewald contribution        =    -344.39296900 Ry
     one-center paw contrib.   =    -165.58465147 Ry
      -> PAW hartree energy AE =     182.94080343 Ry
      -> PAW hartree energy PS =    -181.64298457 Ry
      -> PAW xc energy AE      =    -110.15756054 Ry
      -> PAW xc energy PS      =      26.06741576 Ry
      -> total E_H with PAW    =     133.41768088 Ry
      -> total E_XC with PAW   =    -139.57159963 Ry

     total magnetization       =     4.43 Bohr mag/cell
     absolute magnetization    =     4.68 Bohr mag/cell

     convergence has been achieved in   8 iterations

     Writing all to output data dir ./out/Fe.save/ :
     XML data file, charge density, pseudopotentials, collected wavefunctions

     General routines

     Parallel routines

     PAW routines

   This run was terminated on:   6:48:49  16Apr2024

   JOB DONE.