     Program PWSCF v.7.2 starts on 18Jul2024 at  2:34:39

     Reading input from 1.Cu_vac_in_ZnS.scf.q0.unrlxd.U5.in

     Current dimensions of program PWSCF are:
     Max number of different atomic species (ntypx) = 10
     Max number of k-points (npk) =  40000
     Max angular momentum in pseudopotentials (lmaxx) =  4
     file S.pbe-n-kjpaw_psl.1.0.0.UPF: wavefunction(s)  3S 3P renormalized
     file Zn.pbe-dnl-kjpaw_psl.1.0.0.UPF: wavefunction(s)  4S 3D renormalized
     file Cu.pbe-spn-kjpaw_psl.1.0.0.UPF: wavefunction(s)  4S 3P 3D renormalized

     K-points division:     npool     =      13
     R & G space division:  proc/nbgrp/npool/nimage =     112
     Subspace diagonalization in iterative solution of the eigenvalue problem:
     one sub-group per band group will be used

     Using Slab Decomposition

     bravais-lattice index     =            1
     lattice parameter (alat)  =      20.5686  a.u.
     unit-cell volume          =    8701.8437 (a.u.)^3
     number of atoms/cell      =           63
     number of atomic types    =            3
     number of electrons       =       577.00
     number of Kohn-Sham states=          347
     kinetic-energy cutoff     =     150.0000  Ry
     charge density cutoff     =     600.0000  Ry
     scf convergence threshold =      1.0E-08
     mixing beta               =       0.7000
     number of iterations used =            8  plain     mixing
     Exchange-correlation= SLA  PW   PBX  PBC
                           (   1   4   3   4   0   0   0)
     Hubbard projectors: ortho-atomic
     Hubbard parameters of DFT+U (Dudarev formulation) in eV:
     U(Zn-3d) =  7.0000
     U(Cu-3d) =  5.0000

     Internal variables: lda_plus_u = T, lda_plus_u_kind = 0

     celldm(1)=  20.568554  celldm(2)=   0.000000  celldm(3)=   0.000000
     celldm(4)=   0.000000  celldm(5)=   0.000000  celldm(6)=   0.000000

     crystal axes: (cart. coord. in units of alat)
               a(1) = (   1.000000   0.000000   0.000000 )
               a(2) = (   0.000000   1.000000   0.000000 )
               a(3) = (   0.000000   0.000000   1.000000 )

     reciprocal axes: (cart. coord. in units 2 pi/alat)
               b(1) = (  1.000000  0.000000  0.000000 )
               b(2) = (  0.000000  1.000000  0.000000 )
               b(3) = (  0.000000  0.000000  1.000000 )

     PseudoPot. # 1 for S  read from file:
     /arf/home/amuhaymin/pseudo/S.pbe-n-kjpaw_psl.1.0.0.UPF
     MD5 check sum: fb45dfebcf3e72a4e1bd4a866ec2e262
     Pseudo is Projector augmented-wave + core cor, Zval =  6.0
     Generated using &quot;atomic&quot; code by A. Dal Corso  v.6.3
     Shape of augmentation charge: PSQ
     Using radial grid of 1151 points,  6 beta functions with:
                l(1) =   0
                l(2) =   0
                l(3) =   1
                l(4) =   1
                l(5) =   2
                l(6) =   2
     Q(r) pseudized with 0 coefficients

     PseudoPot. # 2 for Zn read from file:
     /arf/home/amuhaymin/pseudo/Zn.pbe-dnl-kjpaw_psl.1.0.0.UPF
     MD5 check sum: c608214d9520ac179f507641260889e3
     Pseudo is Projector augmented-wave + core cor, Zval = 12.0
     Generated using &quot;atomic&quot; code by A. Dal Corso  v.6.2.2
     Shape of augmentation charge: PSQ
     Using radial grid of 1201 points,  6 beta functions with:
                l(1) =   0
                l(2) =   0
                l(3) =   1
                l(4) =   1
                l(5) =   2
                l(6) =   2
     Q(r) pseudized with 0 coefficients

     PseudoPot. # 3 for Cu read from file:
     /arf/home/amuhaymin/pseudo/Cu.pbe-spn-kjpaw_psl.1.0.0.UPF
     MD5 check sum: e7cbaad2f97193e5fe23251a619a52b0
     Pseudo is Projector augmented-wave + core cor, Zval = 19.0
     Generated using &quot;atomic&quot; code by A. Dal Corso  v.6.3
     Shape of augmentation charge: PSQ
     Using radial grid of 1199 points,  6 beta functions with:
                l(1) =   0
                l(2) =   0
                l(3) =   1
                l(4) =   1
                l(5) =   2
                l(6) =   2
     Q(r) pseudized with 0 coefficients

     atomic species   valence    mass     pseudopotential
        S              6.00    32.06500     S ( 1.00)
        Zn            12.00    65.38000     Zn( 1.00)
        Cu            19.00    63.54600     Cu( 1.00)

     Starting magnetic structure
     atomic species   magnetization
        S            0.000
        Zn           0.000
        Cu           0.053

      6 Sym. Ops. (no inversion) found

                                    s                        frac. trans.

      isym =  1     identity

 cryst.   s( 1) = (     1          0          0      )
                  (     0          1          0      )
                  (     0          0          1      )

 cart.    s( 1) = (  1.0000000  0.0000000  0.0000000 )
                  (  0.0000000  1.0000000  0.0000000 )
                  (  0.0000000  0.0000000  1.0000000 )

      isym =  2     120 deg rotation - cart. axis [-1,-1,-1]

[...]

      isym =  3     120 deg rotation - cart. axis [1,1,1]

[...]

      isym =  4     inv. 180 deg rotation - cart. axis [1,-1,0]

[...]

      isym =  6     inv. 180 deg rotation - cart. axis [0,1,-1]

 cryst.   s( 6) = (     1          0          0      )
                  (     0          0          1      )
                  (     0          1          0      )

 cart.    s( 6) = (  1.0000000  0.0000000  0.0000000 )
                  (  0.0000000  0.0000000  1.0000000 )
                  (  0.0000000  1.0000000  0.0000000 )

     point group C_3v (3m)
     there are  3 classes
     the character table:

       E     2C3   3s_v
A_1    1.00  1.00  1.00
A_2    1.00  1.00 -1.00
E      2.00 -1.00  0.00

     the symmetry operations in each class and the name of the first element:

     E        1
          identity
     2C3      2    3
          120 deg rotation - cart. axis [-1,-1,-1]
     3s_v     4    5    6
          inv. 180 deg rotation - cart. axis [1,-1,0]

   Cartesian axes

     site n.     atom                  positions (alat units)
         1           Zn  tau(   1) = (   0.0000000   0.0000000   0.0000000  )
         2           Zn  tau(   2) = (   0.0000000   0.2500000   0.2500000  )
         3           Zn  tau(   3) = (   0.2500000   0.0000000   0.2500000  )
         4           Zn  tau(   4) = (   0.2500000   0.2500000   0.0000000  )
         5           S   tau(   5) = (   0.1250000   0.3750000   0.3750000  )
         6           S   tau(   6) = (   0.1250000   0.1250000   0.1250000  )
         7           S   tau(   7) = (   0.3750000   0.3750000   0.1250000  )
         8           S   tau(   8) = (   0.3750000   0.1250000   0.3750000  )
         9           Zn  tau(   9) = (   0.0000000   0.0000000   0.5000000  )
        10           Zn  tau(  10) = (   0.0000000   0.2500000   0.7500000  )
        11           Zn  tau(  11) = (   0.2500000   0.0000000   0.7500000  )
        12           Zn  tau(  12) = (   0.2500000   0.2500000   0.5000000  )
        13           S   tau(  13) = (   0.1250000   0.3750000   0.8750000  )
        14           S   tau(  14) = (   0.1250000   0.1250000   0.6250000  )
        15           S   tau(  15) = (   0.3750000   0.3750000   0.6250000  )
        16           S   tau(  16) = (   0.3750000   0.1250000   0.8750000  )
        17           Zn  tau(  17) = (   0.0000000   0.5000000   0.0000000  )
        18           Zn  tau(  18) = (   0.0000000   0.7500000   0.2500000  )
        19           Zn  tau(  19) = (   0.2500000   0.5000000   0.2500000  )
        20           Zn  tau(  20) = (   0.2500000   0.7500000   0.0000000  )
        21           S   tau(  21) = (   0.1250000   0.8750000   0.3750000  )
        22           S   tau(  22) = (   0.1250000   0.6250000   0.1250000  )
        23           S   tau(  23) = (   0.3750000   0.8750000   0.1250000  )
        24           S   tau(  24) = (   0.3750000   0.6250000   0.3750000  )
        25           Zn  tau(  25) = (   0.0000000   0.5000000   0.5000000  )
        26           Zn  tau(  26) = (   0.0000000   0.7500000   0.7500000  )
        27           Zn  tau(  27) = (   0.2500000   0.5000000   0.7500000  )
        28           Zn  tau(  28) = (   0.2500000   0.7500000   0.5000000  )
        29           S   tau(  29) = (   0.1250000   0.8750000   0.8750000  )
        30           S   tau(  30) = (   0.1250000   0.6250000   0.6250000  )
        31           S   tau(  31) = (   0.3750000   0.8750000   0.6250000  )
        32           S   tau(  32) = (   0.3750000   0.6250000   0.8750000  )
        33           Zn  tau(  33) = (   0.5000000   0.0000000   0.0000000  )
        34           Zn  tau(  34) = (   0.5000000   0.2500000   0.2500000  )
        35           Zn  tau(  35) = (   0.7500000   0.0000000   0.2500000  )
        36           Zn  tau(  36) = (   0.7500000   0.2500000   0.0000000  )
        37           S   tau(  37) = (   0.6250000   0.3750000   0.3750000  )
        38           S   tau(  38) = (   0.6250000   0.1250000   0.1250000  )
        39           S   tau(  39) = (   0.8750000   0.3750000   0.1250000  )
        40           S   tau(  40) = (   0.8750000   0.1250000   0.3750000  )
        41           Zn  tau(  41) = (   0.5000000   0.0000000   0.5000000  )
        42           Zn  tau(  42) = (   0.5000000   0.2500000   0.7500000  )
        43           Zn  tau(  43) = (   0.7500000   0.0000000   0.7500000  )
        44           Zn  tau(  44) = (   0.7500000   0.2500000   0.5000000  )
        45           S   tau(  45) = (   0.6250000   0.3750000   0.8750000  )
        46           S   tau(  46) = (   0.6250000   0.1250000   0.6250000  )
        47           S   tau(  47) = (   0.8750000   0.3750000   0.6250000  )
        48           S   tau(  48) = (   0.8750000   0.1250000   0.8750000  )
        49           Zn  tau(  49) = (   0.5000000   0.5000000   0.0000000  )
        50           Zn  tau(  50) = (   0.5000000   0.7500000   0.2500000  )
        51           Zn  tau(  51) = (   0.7500000   0.5000000   0.2500000  )
        52           Zn  tau(  52) = (   0.7500000   0.7500000   0.0000000  )
        53           S   tau(  53) = (   0.6250000   0.8750000   0.3750000  )
        54           S   tau(  54) = (   0.6250000   0.6250000   0.1250000  )
        55           S   tau(  55) = (   0.8750000   0.8750000   0.1250000  )
        56           S   tau(  56) = (   0.8750000   0.6250000   0.3750000  )
        57           Cu  tau(  57) = (   0.5000000   0.5000000   0.5000000  )
        58           Zn  tau(  58) = (   0.5000000   0.7500000   0.7500000  )
        59           Zn  tau(  59) = (   0.7500000   0.5000000   0.7500000  )
        60           Zn  tau(  60) = (   0.7500000   0.7500000   0.5000000  )
        61           S   tau(  61) = (   0.6250000   0.8750000   0.8750000  )
        62           S   tau(  62) = (   0.8750000   0.8750000   0.6250000  )
        63           S   tau(  63) = (   0.8750000   0.6250000   0.8750000  )

   Crystallographic axes

     site n.     atom                  positions (cryst. coord.)
         1           Zn  tau(   1) = (  0.0000000  0.0000000  0.0000000  )
[...]
     atom  30 (R=0.089)  charge=  3.9963  magn= -0.0001
     atom  31 (R=0.089)  charge=  3.9914  magn=  0.0132
     atom  32 (R=0.089)  charge=  3.9914  magn=  0.0132
     atom  33 (R=0.089)  charge= 10.1750  magn=  0.0023
     atom  34 (R=0.089)  charge= 10.1732  magn=  0.0012
     atom  35 (R=0.089)  charge= 10.1736  magn=  0.0019
     atom  36 (R=0.089)  charge= 10.1736  magn=  0.0019
     atom  37 (R=0.089)  charge=  3.9777  magn=  0.0064
     atom  38 (R=0.089)  charge=  3.9947  magn=  0.0075
     atom  39 (R=0.089)  charge=  3.9968  magn=  0.0008
     atom  40 (R=0.089)  charge=  3.9968  magn=  0.0008
     atom  41 (R=0.089)  charge= 10.1740  magn= -0.0001
     atom  42 (R=0.089)  charge= 10.1747  magn= -0.0000
     atom  43 (R=0.089)  charge= 10.1747  magn= -0.0001
     atom  44 (R=0.089)  charge= 10.1747  magn= -0.0000
     atom  45 (R=0.089)  charge=  3.9914  magn=  0.0132
     atom  46 (R=0.089)  charge=  3.9963  magn= -0.0001
     atom  47 (R=0.089)  charge=  3.9914  magn=  0.0132
     atom  48 (R=0.089)  charge=  3.9965  magn=  0.0010
     atom  49 (R=0.089)  charge= 10.1740  magn= -0.0001
     atom  50 (R=0.089)  charge= 10.1747  magn= -0.0000
     atom  51 (R=0.089)  charge= 10.1747  magn= -0.0000
     atom  52 (R=0.089)  charge= 10.1747  magn= -0.0001
     atom  53 (R=0.089)  charge=  3.9914  magn=  0.0132
     atom  54 (R=0.089)  charge=  3.9963  magn= -0.0001
     atom  55 (R=0.089)  charge=  3.9965  magn=  0.0010
     atom  56 (R=0.089)  charge=  3.9914  magn=  0.0132
     atom  57 (R=0.089)  charge= 17.4074  magn=  0.0118
     atom  58 (R=0.089)  charge= 10.1340  magn=  0.0334
     atom  59 (R=0.089)  charge= 10.1340  magn=  0.0334
     atom  60 (R=0.089)  charge= 10.1340  magn=  0.0334
     atom  61 (R=0.089)  charge=  3.9921  magn=  0.0182
     atom  62 (R=0.089)  charge=  3.9921  magn=  0.0182
     atom  63 (R=0.089)  charge=  3.9921  magn=  0.0182

     End of self-consistent calculation

 ------ SPIN UP ------------

          k = 0.0000 0.0000 0.0000 (269825 PWs)   bands (ev):

  -103.8966 -61.3725 -61.2898 -61.2898  -7.6057  -7.2298  -7.2298  -7.1921
    -7.1844  -7.1844  -7.1253  -7.0560  -7.0560  -7.0154  -7.0003  -6.9604
    -6.9604  -6.9277  -6.9262  -6.9262  -6.9109  -6.9109  -6.8947  -6.8570
    -6.8570  -6.8233  -6.7761  -6.7761  -6.7282  -6.7071  -6.6863  -6.6863
    -6.4562  -6.3211  -6.3211  -3.9885  -3.9712  -3.9712  -3.9683  -3.9546
    -3.9546  -3.9461  -3.9461  -3.9374  -3.9371  -3.9266  -3.9266  -3.9121
    -3.9076  -3.9076  -3.7969  -3.7969  -3.7946  -3.7716  -3.7716  -3.7657
    -3.7627  -3.7595  -3.7595  -3.7524  -3.7524  -3.7464  -3.7464  -3.7450
    -3.7393  -3.7393  -3.7371  -3.7335  -3.7308  -3.7308  -3.7280  -3.7201
    -3.7201  -3.7199  -3.7136  -3.7136  -3.7056  -3.6981  -3.6981  -3.6930
    -3.6874  -3.6874  -3.6847  -3.6800  -3.6800  -3.6780  -3.6691  -3.6648
    -3.6648  -3.6574  -3.6574  -3.6554  -3.6554  -3.6527  -3.6463  -3.6448
    -3.6448  -3.6384  -3.6384  -3.6274  -3.6274  -3.6255  -3.6249  -3.6128
    -3.6128  -3.6114  -3.6059  -3.6004  -3.5995  -3.5995  -3.5957  -3.5878
    -3.5878  -3.5864  -3.5864  -3.5856  -3.5830  -3.5828  -3.5780  -3.5780
    -3.5749  -3.5749  -3.5747  -3.5747  -3.5650  -3.5615  -3.5615  -3.5614
    -3.5524  -3.5524  -3.5508  -3.5435  -3.5397  -3.5397  -3.5296  -3.5284
    -3.5284  -3.5151  -3.5151  -3.5028  -3.5028  -3.5003  -3.5003  -3.4964
    -3.4964  -3.4963  -3.4860  -3.4792  -3.4560  -3.4540  -3.4540  -3.4382
    -3.4382  -3.4358  -3.4251  -3.4234  -3.4234  -3.4172  -3.4172  -3.4140
    -3.4140  -3.4097  -3.4033  -3.3975  -3.3975  -3.3867  -3.2511  -3.2479
    -3.2479  -3.2341  -3.2341  -3.2293  -3.2014  -3.2014  -3.1852  -3.1852
    -3.1801  -3.1256  -3.1064  -3.1064  -3.0737  -3.0143  -3.0143  -2.9805
    -2.8951  -2.8667  -2.8667  -2.8657  -2.8416  -2.8416   0.2354   0.2814
     0.3066   0.3066   0.6388   0.6456   0.6456   0.8424   0.8551   0.8551
     0.8656   0.9067   0.9067   1.0859   1.2237   1.2237   1.2430   1.2430
     1.3000   1.3073   1.3078   1.3078   1.4225   1.4225   1.8872   2.3103
     2.3311   2.3311   2.4906   2.4906   2.5032   2.5233   2.5233   2.5494
     2.5723   2.5723   2.6823   2.6824   2.6824   2.7120   2.7136   2.7136
     2.7410   2.7410   2.7535   2.7727   2.7748   2.7748   2.8083   2.8439
     2.8439   2.9690   3.0052   3.0052   3.0425   3.1265   3.1265   3.1811
     3.2605   3.2926   3.2926   3.4805   3.4805   3.5485   3.5485   3.7484
     4.0145   4.0145   4.0218   4.0338   4.0747   4.0747   4.1332   4.1332
     4.1450   4.2215   4.2715   4.2715   4.2912   4.2912   4.2970   4.3173
     4.3173   4.3382   4.3879   4.3879   4.3927   4.3954   4.4061   4.4061
     4.5297   4.6386   4.6386   4.9339   4.9339   5.1502   5.4342   5.4342
     5.9051   7.7349   8.2512   8.2512   8.7348   8.7567   8.7567   8.8112
     8.9102   8.9102   9.0730   9.3421   9.5201   9.5282   9.5282   9.8690
     9.8690   9.9623   9.9689   9.9689  10.0029  10.0149  10.0149  10.0251
    10.0453  10.0453  10.1874  10.1874  10.1968  10.2177  10.2177  10.2412
    10.2412  10.2457  10.2844  10.6009  10.6009  10.6945  11.0681  11.1438
    11.1438  11.1813  11.1813  11.3108  11.3564  11.3564  11.3699  11.6375
    11.6621  11.6621  11.8531  11.8674  11.8701  11.8702  12.0405  12.0405
    12.0476  12.0618  12.0619

     occupation numbers
     1.0000   1.0000   1.0000   1.0000   1.0000   1.0000   1.0000   1.0000
     1.0000   1.0000   1.0000   1.0000   1.0000   1.0000   1.0000   1.0000
     1.0000   1.0000   1.0000   1.0000   1.0000   1.0000   1.0000   1.0000
     1.0000   1.0000   1.0000   1.0000   1.0000   1.0000   1.0000   1.0000
     1.0000   1.0000   1.0000   1.0000   1.0000   1.0000   1.0000   1.0000
     1.0000   1.0000   1.0000   1.0000   1.0000   1.0000   1.0000   1.0000
     1.0000   1.0000   1.0000   1.0000   1.0000   1.0000   1.0000   1.0000
     1.0000   1.0000   1.0000   1.0000   1.0000   1.0000   1.0000   1.0000
     1.0000   1.0000   1.0000   1.0000   1.0000   1.0000   1.0000   1.0000
     1.0000   1.0000   1.0000   1.0000   1.0000   1.0000   1.0000   1.0000
     1.0000   1.0000   1.0000   1.0000   1.0000   1.0000   1.0000   1.0000
     1.0000   1.0000   1.0000   1.0000   1.0000   1.0000   1.0000   1.0000
     1.0000   1.0000   1.0000   1.0000   1.0000   1.0000   1.0000   1.0000
     1.0000   1.0000   1.0000   1.0000   1.0000   1.0000   1.0000   1.0000
     1.0000   1.0000   1.0000   1.0000   1.0000   1.0000   1.0000   1.0000
     1.0000   1.0000   1.0000   1.0000   1.0000   1.0000   1.0000   1.0000
     1.0000   1.0000   1.0000   1.0000   1.0000   1.0000   1.0000   1.0000
     1.0000   1.0000   1.0000   1.0000   1.0000   1.0000   1.0000   1.0000
     1.0000   1.0000   1.0000   1.0000   1.0000   1.0000   1.0000   1.0000
     1.0000   1.0000   1.0000   1.0000   1.0000   1.0000   1.0000   1.0000
     1.0000   1.0000   1.0000   1.0000   1.0000   1.0000   1.0000   1.0000
     1.0000   1.0000   1.0000   1.0000   1.0000   1.0000   1.0000   1.0000
     1.0000   1.0000   1.0000   1.0000   1.0000   1.0000   1.0000   1.0000
     1.0000   1.0000   1.0000   1.0000   1.0000   1.0000   1.0000   1.0000
     1.0000   1.0000   1.0000   1.0000   1.0000   1.0000   1.0000   1.0000
     1.0000   1.0000   1.0000   1.0000   1.0000   1.0000   1.0000   1.0000
     1.0000   1.0000   1.0000   1.0000   1.0000   1.0000   1.0000   1.0000
     1.0000   1.0000   1.0000   1.0000   1.0000   1.0000   1.0000   1.0000
     1.0000   1.0000   1.0000   1.0000   1.0000   1.0000   1.0000   1.0000
     1.0000   1.0000   1.0000   1.0000   1.0000   1.0000   1.0000   1.0000
     1.0000   1.0000   1.0000   1.0000   1.0000   1.0000   1.0000   1.0000
     1.0000   1.0000   1.0000   1.0000   1.0000   1.0000   1.0000   1.0000
     1.0000   1.0000   1.0000   1.0000   1.0000   1.0000   1.0000   1.0000
     1.0000   1.0000   1.0000   1.0000   1.0000   1.0000   1.0000   1.0000
     1.0000   1.0000   1.0000   1.0000   1.0000   1.0000   1.0000   1.0000
     1.0000   1.0000   1.0000   1.0000   1.0000   1.0000   1.0000   1.0000
     1.0000   0.0000   0.0000   0.0000   0.0000   0.0000   0.0000   0.0000
     0.0000   0.0000   0.0000   0.0000   0.0000   0.0000   0.0000   0.0000
     0.0000   0.0000   0.0000   0.0000   0.0000   0.0000   0.0000   0.0000
     0.0000   0.0000   0.0000   0.0000   0.0000   0.0000   0.0000   0.0000
     0.0000   0.0000   0.0000   0.0000   0.0000   0.0000   0.0000   0.0000
     0.0000   0.0000   0.0000   0.0000   0.0000   0.0000   0.0000   0.0000
     0.0000   0.0000   0.0000   0.0000   0.0000   0.0000   0.0000   0.0000
     0.0000   0.0000   0.0000

[...]

          k =-0.5000-0.5000-0.5000 (269968 PWs)   bands (ev):

[...]

 ------ SPIN DOWN ----------

[...]

          k =-0.2500 0.0000 0.2500 (269929 PWs)   bands (ev):

[...]

          k = 0.2500-0.2500-0.5000 (269988 PWs)   bands (ev):

  -103.8887 -61.3543 -61.2869 -61.2869  -7.4524  -7.3968  -7.2628  -7.2546
    -7.2318  -7.1663  -7.1131  -7.0217  -7.0185  -6.9934  -6.9809  -6.9610
    -6.9352  -6.9013  -6.8930  -6.8702  -6.8669  -6.8469  -6.8431  -6.8374
    -6.8252  -6.8041  -6.7759  -6.7704  -6.7594  -6.7493  -6.7256  -6.7188
    -6.4381  -6.3215  -6.3185  -3.9538  -3.9515  -3.9505  -3.9453  -3.9412
    -3.9400  -3.9287  -3.9171  -3.9164  -3.9158  -3.9079  -3.9072  -3.8950
    -3.8934  -3.8927  -3.7914  -3.7889  -3.7804  -3.7751  -3.7733  -3.7694
    -3.7686  -3.7637  -3.7621  -3.7549  -3.7526  -3.7510  -3.7498  -3.7460
    -3.7429  -3.7383  -3.7362  -3.7291  -3.7264  -3.7202  -3.7192  -3.7164
    -3.7142  -3.7092  -3.7044  -3.7010  -3.6986  -3.6952  -3.6911  -3.6896
    -3.6877  -3.6859  -3.6832  -3.6794  -3.6782  -3.6711  -3.6700  -3.6670
    -3.6651  -3.6619  -3.6561  -3.6557  -3.6523  -3.6480  -3.6458  -3.6444
    -3.6396  -3.6382  -3.6321  -3.6288  -3.6280  -3.6268  -3.6227  -3.6185
    -3.6170  -3.6149  -3.6109  -3.6088  -3.6075  -3.6025  -3.6006  -3.5965
    -3.5934  -3.5902  -3.5876  -3.5842  -3.5808  -3.5774  -3.5754  -3.5703
    -3.5683  -3.5679  -3.5663  -3.5617  -3.5604  -3.5582  -3.5570  -3.5538
    -3.5522  -3.5499  -3.5465  -3.5433  -3.5421  -3.5389  -3.5360  -3.5340
    -3.5294  -3.5214  -3.5176  -3.5172  -3.5096  -3.5060  -3.5019  -3.4995
    -3.4958  -3.4897  -3.4795  -3.4659  -3.4470  -3.4462  -3.4443  -3.4424
    -3.4415  -3.4296  -3.4269  -3.4248  -3.4160  -3.4153  -3.4096  -3.4064
    -3.4055  -3.4011  -3.3981  -3.3947  -3.3912  -3.3900  -3.3662  -3.3007
    -3.2709  -3.2615  -3.2444  -3.1815  -3.1723  -3.1606  -3.1234  -3.1118
    -3.1034  -3.0571  -3.0474  -3.0299  -3.0103  -2.9998  -2.9975  -2.9848
    -2.9672  -2.9544  -2.9329  -2.9237  -2.9185  -2.9089   0.5069   0.5615
     0.6133   0.6972   0.7145   0.7409   0.7538   0.7699   0.7805   0.7916
     0.8097   0.8463   0.8511   0.8811   0.8927   0.9403   0.9769   1.0956
     1.1539   1.2361   1.2877   1.3356   1.3618   1.4105   1.5400   1.8956
     2.1735   2.2644   2.3271   2.3853   2.4111   2.4449   2.4827   2.5313
     2.5804   2.6321   2.6505   2.6527   2.6922   2.7512   2.7801   2.8425
     2.9162   2.9343   3.0370   3.1010   3.1641   3.1878   3.2348   3.2943
     3.3196   3.3329   3.3440   3.3573   3.3801   3.3975   3.4316   3.4613
     3.4797   3.4873   3.5117   3.5279   3.5490   3.5599   3.5852   3.6084
     3.6424   3.6717   3.6940   3.7314   3.7754   3.7963   3.8707   3.8850
     3.9323   3.9748   4.0077   4.0314   4.0856   4.0987   4.1505   4.1849
     4.2450   4.2519   4.2814   4.3167   4.4120   4.4969   4.5776   4.6582
     4.6761   4.7196   4.7704   4.8485   4.8641   4.8907   5.2786   5.3508
     6.7528   8.2006   8.3040   8.8682   8.9559   9.0677   9.1395   9.2268
     9.3503   9.3862   9.4486   9.5251   9.5462   9.5927   9.6133   9.6323
     9.6638   9.7412   9.7519   9.7988   9.8325   9.8656   9.8828   9.9555
     9.9849   9.9930  10.0636  10.0950  10.1044  10.1817  10.1995  10.3264
    10.3542  10.3926  10.4391  10.6064  10.6980  10.7496  10.7787  10.8262
    10.8524  10.9578  11.0428  11.1417  11.2314  11.2862  11.3502  11.4135
    11.4666  11.4942  11.5032  11.5314  11.5859  11.5974  11.6280  11.6413
    11.6544  11.6790  11.6922

     occupation numbers
     1.0000   1.0000   1.0000   1.0000   1.0000   1.0000   1.0000   1.0000
     1.0000   1.0000   1.0000   1.0000   1.0000   1.0000   1.0000   1.0000
     1.0000   1.0000   1.0000   1.0000   1.0000   1.0000   1.0000   1.0000
     1.0000   1.0000   1.0000   1.0000   1.0000   1.0000   1.0000   1.0000
     1.0000   1.0000   1.0000   1.0000   1.0000   1.0000   1.0000   1.0000
     1.0000   1.0000   1.0000   1.0000   1.0000   1.0000   1.0000   1.0000
     1.0000   1.0000   1.0000   1.0000   1.0000   1.0000   1.0000   1.0000
     1.0000   1.0000   1.0000   1.0000   1.0000   1.0000   1.0000   1.0000
     1.0000   1.0000   1.0000   1.0000   1.0000   1.0000   1.0000   1.0000
     1.0000   1.0000   1.0000   1.0000   1.0000   1.0000   1.0000   1.0000
     1.0000   1.0000   1.0000   1.0000   1.0000   1.0000   1.0000   1.0000
     1.0000   1.0000   1.0000   1.0000   1.0000   1.0000   1.0000   1.0000
     1.0000   1.0000   1.0000   1.0000   1.0000   1.0000   1.0000   1.0000
     1.0000   1.0000   1.0000   1.0000   1.0000   1.0000   1.0000   1.0000
     1.0000   1.0000   1.0000   1.0000   1.0000   1.0000   1.0000   1.0000
     1.0000   1.0000   1.0000   1.0000   1.0000   1.0000   1.0000   1.0000
     1.0000   1.0000   1.0000   1.0000   1.0000   1.0000   1.0000   1.0000
     1.0000   1.0000   1.0000   1.0000   1.0000   1.0000   1.0000   1.0000
     1.0000   1.0000   1.0000   1.0000   1.0000   1.0000   1.0000   1.0000
     1.0000   1.0000   1.0000   1.0000   1.0000   1.0000   1.0000   1.0000
     1.0000   1.0000   1.0000   1.0000   1.0000   1.0000   1.0000   1.0000
     1.0000   1.0000   1.0000   1.0000   1.0000   1.0000   1.0000   1.0000
     1.0000   1.0000   1.0000   1.0000   1.0000   1.0000   1.0000   1.0000
     1.0000   1.0000   1.0000   1.0000   1.0000   1.0000   1.0000   1.0000
     1.0000   1.0000   1.0000   1.0000   1.0000   1.0000   1.0000   1.0000
     1.0000   1.0000   1.0000   1.0000   1.0000   1.0000   1.0000   1.0000
     1.0000   1.0000   1.0000   1.0000   1.0000   1.0000   1.0000   1.0000
     1.0000   1.0000   1.0000   1.0000   1.0000   1.0000   1.0000   1.0000
     1.0000   1.0000   1.0000   1.0000   1.0000   1.0000   1.0000   1.0000
     1.0000   1.0000   1.0000   1.0000   1.0000   1.0000   1.0000   1.0000
     1.0000   1.0000   1.0000   1.0000   1.0000   1.0000   1.0000   1.0000
     1.0000   1.0000   1.0000   1.0000   1.0000   1.0000   1.0000   1.0000
     1.0000   1.0000   1.0000   1.0000   1.0000   1.0000   1.0000   1.0000
     1.0000   1.0000   1.0000   1.0000   1.0000   1.0000   1.0000   1.0000
     1.0000   1.0000   1.0000   1.0000   1.0000   1.0000   1.0000   1.0000
     1.0000   1.0000   1.0000   1.0000   1.0000   1.0000   1.0000   1.0000
     0.0000   0.0000   0.0000   0.0000   0.0000   0.0000   0.0000   0.0000
     0.0000   0.0000   0.0000   0.0000   0.0000   0.0000   0.0000   0.0000
     0.0000   0.0000   0.0000   0.0000   0.0000   0.0000   0.0000   0.0000
     0.0000   0.0000   0.0000   0.0000   0.0000   0.0000   0.0000   0.0000
     0.0000   0.0000   0.0000   0.0000   0.0000   0.0000   0.0000   0.0000
     0.0000   0.0000   0.0000   0.0000   0.0000   0.0000   0.0000   0.0000
     0.0000   0.0000   0.0000   0.0000   0.0000   0.0000   0.0000   0.0000
     0.0000   0.0000   0.0000

     the Fermi energy is     6.3290 ev

!    total energy              =  -10100.56783190 Ry
     total all-electron energy =   -139419.096880 Ry
     estimated scf accuracy    <          4.3E-09 Ry
     smearing contrib. (-TS)   =      -0.00000000 Ry
     internal energy E=F+TS    =  -10100.56783190 Ry

     The total energy is F=E-TS. E is the sum of the following terms:
     one-electron contribution =   -3089.15158150 Ry
     hartree contribution      =    2121.60351910 Ry
     xc contribution           =   -1661.74024937 Ry
     ewald contribution        =   -2984.70201120 Ry
     Hubbard energy            =       0.27377928 Ry
     one-center paw contrib.   =   -4486.85128822 Ry
      -> PAW hartree energy AE =     123.79004439 Ry
      -> PAW hartree energy PS =    -123.14283393 Ry
      -> PAW xc energy AE      =    -143.26878154 Ry
      -> PAW xc energy PS      =      47.20547867 Ry
      -> total E_H with PAW    =    2122.25072957 Ry
      -> total E_XC with PAW   =   -1757.80355223 Ry

     total magnetization       =     1.00 Bohr mag/cell
     absolute magnetization    =     1.06 Bohr mag/cell

     convergence has been achieved in  14 iterations

     Writing all to output data dir ./out/Cu_vac_q0_U5_unrlxd.save/

     General routines

     Parallel routines

     Hubbard U routines

     PAW routines

   This run was terminated on:   2:38:44  18Jul2024

   JOB DONE.