     Program PWSCF v.7.2 starts on  5Jul2024 at 14:24: 9

     Reading input from 1.Fe_in_ZnS.scf.qn1.unrlxd.in

     Current dimensions of program PWSCF are:
     Max number of different atomic species (ntypx) = 10
     Max number of k-points (npk) =  40000
     Max angular momentum in pseudopotentials (lmaxx) =  4
     file S.pbe-n-kjpaw_psl.1.0.0.UPF: wavefunction(s)  3S 3P renormalized
     file Zn.pbe-dnl-kjpaw_psl.1.0.0.UPF: wavefunction(s)  4S 3D renormalized
     file Fe.pbe-spn-kjpaw_psl.1.0.0.UPF: wavefunction(s)  3P 3D renormalized

     K-points division:     npool     =       5
     R & G space division:  proc/nbgrp/npool/nimage =     112
     Subspace diagonalization in iterative solution of the eigenvalue problem:
     one sub-group per band group will be used

     Using Slab Decomposition

     bravais-lattice index     =            1
     lattice parameter (alat)  =      20.5686  a.u.
     unit-cell volume          =    8701.8437 (a.u.)^3
     number of atoms/cell      =           64
     number of atomic types    =            3
     number of electrons       =       581.00
     number of Kohn-Sham states=          349
     kinetic-energy cutoff     =     150.0000  Ry
     charge density cutoff     =     600.0000  Ry
     scf convergence threshold =      1.0E-08
     mixing beta               =       0.7000
     number of iterations used =            8  plain     mixing
     Exchange-correlation= SLA  PW   PBX  PBC
                           (   1   4   3   4   0   0   0)

     celldm(1)=  20.568554  celldm(2)=   0.000000  celldm(3)=   0.000000
     celldm(4)=   0.000000  celldm(5)=   0.000000  celldm(6)=   0.000000

     crystal axes: (cart. coord. in units of alat)
               a(1) = (   1.000000   0.000000   0.000000 )
               a(2) = (   0.000000   1.000000   0.000000 )
               a(3) = (   0.000000   0.000000   1.000000 )

     reciprocal axes: (cart. coord. in units 2 pi/alat)
               b(1) = (  1.000000  0.000000  0.000000 )
               b(2) = (  0.000000  1.000000  0.000000 )
               b(3) = (  0.000000  0.000000  1.000000 )

     PseudoPot. # 1 for S  read from file:
     /arf/home/amuhaymin/pseudo/S.pbe-n-kjpaw_psl.1.0.0.UPF
     MD5 check sum: fb45dfebcf3e72a4e1bd4a866ec2e262
     Pseudo is Projector augmented-wave + core cor, Zval =  6.0
     Generated using &quot;atomic&quot; code by A. Dal Corso  v.6.3
     Shape of augmentation charge: PSQ
     Using radial grid of 1151 points,  6 beta functions with:
                l(1) =   0
                l(2) =   0
                l(3) =   1
                l(4) =   1
                l(5) =   2
                l(6) =   2
     Q(r) pseudized with 0 coefficients

     PseudoPot. # 2 for Zn read from file:
     /arf/home/amuhaymin/pseudo/Zn.pbe-dnl-kjpaw_psl.1.0.0.UPF
     MD5 check sum: c608214d9520ac179f507641260889e3
     Pseudo is Projector augmented-wave + core cor, Zval = 12.0
     Generated using &quot;atomic&quot; code by A. Dal Corso  v.6.2.2
     Shape of augmentation charge: PSQ
     Using radial grid of 1201 points,  6 beta functions with:
                l(1) =   0
                l(2) =   0
                l(3) =   1
                l(4) =   1
                l(5) =   2
                l(6) =   2
     Q(r) pseudized with 0 coefficients

     PseudoPot. # 3 for Fe read from file:
     /arf/home/amuhaymin/pseudo/Fe.pbe-spn-kjpaw_psl.1.0.0.UPF
     MD5 check sum: fc81f059e5c5069939230b1155715ae8
     Pseudo is Projector augmented-wave + core cor, Zval = 16.0
     Generated using &quot;atomic&quot; code by A. Dal Corso  v.6.3
     Shape of augmentation charge: PSQ
     Using radial grid of 1191 points,  6 beta functions with:
                l(1) =   0
                l(2) =   0
                l(3) =   1
                l(4) =   1
                l(5) =   2
                l(6) =   2
     Q(r) pseudized with 0 coefficients

     atomic species   valence    mass     pseudopotential
        S              6.00    32.06500     S ( 1.00)
        Zn            12.00    65.38000     Zn( 1.00)
        Fe            16.00    63.54600     Fe( 1.00)

     Starting magnetic structure
     atomic species   magnetization
        S            0.000
        Zn           0.000
        Fe           0.188

     24 Sym. Ops. (no inversion) found

                                    s                        frac. trans.

      isym =  1     identity

 cryst.   s( 1) = (     1          0          0      )
                  (     0          1          0      )
                  (     0          0          1      )

 cart.    s( 1) = (  1.0000000  0.0000000  0.0000000 )
                  (  0.0000000  1.0000000  0.0000000 )
                  (  0.0000000  0.0000000  1.0000000 )

      isym =  2     180 deg rotation - cart. axis [0,0,1]

[...]

 cryst.   s( 9) = (     0          1          0      )
                  (     0          0          1      )
                  (     1          0          0      )

 cart.    s( 9) = (  0.0000000  0.0000000  1.0000000 )
                  (  1.0000000  0.0000000  0.0000000 )
                  (  0.0000000  1.0000000  0.0000000 )

[...]

 cryst.   s(10) = (     0         -1          0      )
                  (     0          0         -1      )
                  (     1          0          0      )

 cart.    s(10) = (  0.0000000  0.0000000  1.0000000 )
                  ( -1.0000000  0.0000000  0.0000000 )
                  (  0.0000000 -1.0000000  0.0000000 )

[...]

      isym = 12     120 deg rotation - cart. axis [-1,-1,1]

[...]

      isym = 13     inv. 180 deg rotation - cart. axis [1,1,0]

[...]

      isym = 24     inv.  90 deg rotation - cart. axis [1,0,0]

 cryst.   s(24) = (    -1          0          0      )
                  (     0          0         -1      )
                  (     0          1          0      )

 cart.    s(24) = ( -1.0000000  0.0000000  0.0000000 )
                  (  0.0000000  0.0000000  1.0000000 )
                  (  0.0000000 -1.0000000  0.0000000 )

     point group T_d (-43m)
     there are  5 classes
     the character table:

       E     8C3   3C2   6S4   6s_d
A_1    1.00  1.00  1.00  1.00  1.00
A_2    1.00  1.00  1.00 -1.00 -1.00
E      2.00 -1.00  2.00  0.00  0.00
T_1    3.00  0.00 -1.00  1.00 -1.00
T_2    3.00  0.00 -1.00 -1.00  1.00

     the symmetry operations in each class and the name of the first element:

     E        1
          identity
     8C3      5    7    8    6   12    9   10   11
          120 deg rotation - cart. axis [-1,-1,-1]
     3C2      2    3    4
          180 deg rotation - cart. axis [0,0,1]
     6S4     15   16   20   19   23   24
          inv.  90 deg rotation - cart. axis [0,0,-1]
     6s_d    13   14   17   18   21   22
          inv. 180 deg rotation - cart. axis [1,1,0]

   Cartesian axes

     site n.     atom                  positions (alat units)
         1           Zn  tau(   1) = (   0.0000000   0.0000000   0.0000000  )
         2           Zn  tau(   2) = (   0.0000000   0.2500000   0.2500000  )
         3           Zn  tau(   3) = (   0.2500000   0.0000000   0.2500000  )
         4           Zn  tau(   4) = (   0.2500000   0.2500000   0.0000000  )
         5           S   tau(   5) = (   0.1250000   0.3750000   0.3750000  )
         6           S   tau(   6) = (   0.1250000   0.1250000   0.1250000  )
         7           S   tau(   7) = (   0.3750000   0.3750000   0.1250000  )
         8           S   tau(   8) = (   0.3750000   0.1250000   0.3750000  )
         9           Zn  tau(   9) = (   0.0000000   0.0000000   0.5000000  )
        10           Zn  tau(  10) = (   0.0000000   0.2500000   0.7500000  )
        11           Zn  tau(  11) = (   0.2500000   0.0000000   0.7500000  )
        12           Zn  tau(  12) = (   0.2500000   0.2500000   0.5000000  )
        13           S   tau(  13) = (   0.1250000   0.3750000   0.8750000  )
        14           S   tau(  14) = (   0.1250000   0.1250000   0.6250000  )
        15           S   tau(  15) = (   0.3750000   0.3750000   0.6250000  )
        16           S   tau(  16) = (   0.3750000   0.1250000   0.8750000  )
        17           Zn  tau(  17) = (   0.0000000   0.5000000   0.0000000  )
        18           Zn  tau(  18) = (   0.0000000   0.7500000   0.2500000  )
        19           Zn  tau(  19) = (   0.2500000   0.5000000   0.2500000  )
        20           Zn  tau(  20) = (   0.2500000   0.7500000   0.0000000  )
        21           S   tau(  21) = (   0.1250000   0.8750000   0.3750000  )
        22           S   tau(  22) = (   0.1250000   0.6250000   0.1250000  )
        23           S   tau(  23) = (   0.3750000   0.8750000   0.1250000  )
        24           S   tau(  24) = (   0.3750000   0.6250000   0.3750000  )
        25           Zn  tau(  25) = (   0.0000000   0.5000000   0.5000000  )
        26           Zn  tau(  26) = (   0.0000000   0.7500000   0.7500000  )
        27           Zn  tau(  27) = (   0.2500000   0.5000000   0.7500000  )
        28           Zn  tau(  28) = (   0.2500000   0.7500000   0.5000000  )
        29           S   tau(  29) = (   0.1250000   0.8750000   0.8750000  )
        30           S   tau(  30) = (   0.1250000   0.6250000   0.6250000  )
        31           S   tau(  31) = (   0.3750000   0.8750000   0.6250000  )
        32           S   tau(  32) = (   0.3750000   0.6250000   0.8750000  )
        33           Zn  tau(  33) = (   0.5000000   0.0000000   0.0000000  )
        34           Zn  tau(  34) = (   0.5000000   0.2500000   0.2500000  )
        35           Zn  tau(  35) = (   0.7500000   0.0000000   0.2500000  )
        36           Zn  tau(  36) = (   0.7500000   0.2500000   0.0000000  )
        37           S   tau(  37) = (   0.6250000   0.3750000   0.3750000  )
        38           S   tau(  38) = (   0.6250000   0.1250000   0.1250000  )
        39           S   tau(  39) = (   0.8750000   0.3750000   0.1250000  )
        40           S   tau(  40) = (   0.8750000   0.1250000   0.3750000  )
        41           Zn  tau(  41) = (   0.5000000   0.0000000   0.5000000  )
        42           Zn  tau(  42) = (   0.5000000   0.2500000   0.7500000  )
        43           Zn  tau(  43) = (   0.7500000   0.0000000   0.7500000  )
        44           Zn  tau(  44) = (   0.7500000   0.2500000   0.5000000  )
        45           S   tau(  45) = (   0.6250000   0.3750000   0.8750000  )
        46           S   tau(  46) = (   0.6250000   0.1250000   0.6250000  )
        47           S   tau(  47) = (   0.8750000   0.3750000   0.6250000  )
        48           S   tau(  48) = (   0.8750000   0.1250000   0.8750000  )
        49           Zn  tau(  49) = (   0.5000000   0.5000000   0.0000000  )
        50           Zn  tau(  50) = (   0.5000000   0.7500000   0.2500000  )
        51           Zn  tau(  51) = (   0.7500000   0.5000000   0.2500000  )
        52           Zn  tau(  52) = (   0.7500000   0.7500000   0.0000000  )
        53           S   tau(  53) = (   0.6250000   0.8750000   0.3750000  )
        54           S   tau(  54) = (   0.6250000   0.6250000   0.1250000  )
        55           S   tau(  55) = (   0.8750000   0.8750000   0.1250000  )
[...]
     atom  31 (R=0.089)  charge=  3.9984  magn= -0.0008
     atom  32 (R=0.089)  charge=  3.9984  magn= -0.0008
     atom  33 (R=0.089)  charge= 10.1648  magn=  0.0005
     atom  34 (R=0.089)  charge= 10.1650  magn=  0.0011
     atom  35 (R=0.089)  charge= 10.1635  magn= -0.0003
     atom  36 (R=0.089)  charge= 10.1635  magn= -0.0003
     atom  37 (R=0.089)  charge=  3.9940  magn=  0.0171
     atom  38 (R=0.089)  charge=  3.9992  magn=  0.0019
     atom  39 (R=0.089)  charge=  3.9992  magn=  0.0019
     atom  40 (R=0.089)  charge=  3.9992  magn=  0.0019
     atom  41 (R=0.089)  charge= 10.1630  magn= -0.0002
     atom  42 (R=0.089)  charge= 10.1650  magn=  0.0011
     atom  43 (R=0.089)  charge= 10.1635  magn= -0.0003
     atom  44 (R=0.089)  charge= 10.1650  magn=  0.0011
     atom  45 (R=0.089)  charge=  3.9984  magn= -0.0008
     atom  46 (R=0.089)  charge=  3.9984  magn= -0.0008
     atom  47 (R=0.089)  charge=  3.9984  magn= -0.0008
     atom  48 (R=0.089)  charge=  3.9990  magn= -0.0001
     atom  49 (R=0.089)  charge= 10.1630  magn= -0.0002
     atom  50 (R=0.089)  charge= 10.1650  magn=  0.0011
     atom  51 (R=0.089)  charge= 10.1650  magn=  0.0011
     atom  52 (R=0.089)  charge= 10.1635  magn= -0.0003
     atom  53 (R=0.089)  charge=  3.9984  magn= -0.0008
     atom  54 (R=0.089)  charge=  3.9984  magn= -0.0008
     atom  55 (R=0.089)  charge=  3.9990  magn= -0.0001
     atom  56 (R=0.089)  charge=  3.9984  magn= -0.0008
     atom  57 (R=0.089)  charge= 14.1050  magn=  2.6083
     atom  58 (R=0.089)  charge= 10.1650  magn=  0.0011
     atom  59 (R=0.089)  charge= 10.1650  magn=  0.0011
     atom  60 (R=0.089)  charge= 10.1650  magn=  0.0011
     atom  61 (R=0.089)  charge=  3.9992  magn=  0.0019
     atom  62 (R=0.089)  charge=  3.9940  magn=  0.0171
     atom  63 (R=0.089)  charge=  3.9992  magn=  0.0019
     atom  64 (R=0.089)  charge=  3.9992  magn=  0.0019

     End of self-consistent calculation

 ------ SPIN UP ------------

          k = 0.0000 0.0000 0.0000 (269825 PWs)   bands (ev):

   -79.9751 -46.0770 -46.0770 -46.0770  -7.4593  -6.9382  -6.9382  -6.9252
    -6.9252  -6.9252  -6.8796  -6.6355  -6.6355  -6.6355  -6.6237  -6.6133
    -6.6133  -6.6132  -6.6132  -6.6132  -6.6112  -6.6112  -6.6112  -6.4766
    -6.4766  -6.4766  -6.3139  -6.3139  -6.3139  -6.2824  -6.2824  -6.2824
    -6.2192  -5.9885  -5.9885  -5.9885  -0.7441  -0.7441  -0.7441  -0.7391
    -0.7391  -0.7342  -0.6923  -0.6923  -0.6722  -0.6722  -0.6722  -0.6685
    -0.6205  -0.6205  -0.6205  -0.6161  -0.6161  -0.6028  -0.6028  -0.6028
    -0.5984  -0.5984  -0.5984  -0.5795  -0.5795  -0.5795  -0.5779  -0.5715
    -0.5715  -0.5715  -0.5570  -0.5570  -0.5538  -0.5538  -0.5538  -0.5500
    -0.5500  -0.5500  -0.5500  -0.5430  -0.5430  -0.5430  -0.5399  -0.5399
    -0.5399  -0.5107  -0.5107  -0.5107  -0.5086  -0.5086  -0.4991  -0.4956
    -0.4956  -0.4956  -0.4489  -0.4489  -0.4489  -0.4309  -0.4309  -0.4309
    -0.4241  -0.4241  -0.4111  -0.4111  -0.4111  -0.3925  -0.3925  -0.3925
    -0.3832  -0.3832  -0.3832  -0.3782  -0.3782  -0.3629  -0.3629  -0.3629
    -0.3535  -0.3454  -0.3454  -0.3454  -0.2957  -0.2957  -0.2932  -0.2932
    -0.2932  -0.2789  -0.2789  -0.2789  -0.2784  -0.2784  -0.2784  -0.2637
    -0.2637  -0.2508  -0.2414  -0.2414  -0.2414  -0.2397  -0.2327  -0.2327
    -0.2327  -0.2294  -0.2294  -0.2184  -0.2184  -0.2079  -0.2041  -0.2014
    -0.2014  -0.2014  -0.2006  -0.2006  -0.1975  -0.1975  -0.1975  -0.1963
    -0.1591  -0.1591  -0.1535  -0.1535  -0.1535  -0.1413  -0.1310  -0.1310
    -0.1257  -0.1257  -0.1257  -0.0994  -0.0994  -0.0994  -0.0975  -0.0975
    -0.0975  -0.0954  -0.0954  -0.0954  -0.0871  -0.0871  -0.0646  -0.0646
    -0.0646  -0.0631  -0.0011  -0.0011  -0.0011   0.0174   0.0174   0.0174
     0.0359   0.1632   0.1632   0.1632   0.1985   0.1985   0.1985   0.3968
     0.3968   0.3968   0.4308   1.0121   1.0189   1.0189   1.0605   1.0605
     1.0605   1.0762   1.0762   1.2944   1.5881   1.5881   1.5881   1.6500
     1.6500   1.6739   1.6739   1.6739   1.6917   1.6917   1.6917   2.1424
     2.8689   2.8689   2.8689   2.8791   2.8791   2.8906   2.8906   2.8906
     2.8952   2.9040   2.9040   2.9040   2.9374   2.9374   2.9374   2.9917
     2.9917   3.0716   3.0716   3.0716   3.0778   3.0875   3.0875   3.1068
     3.1068   3.1068   3.2036   3.2036   3.2036   3.4144   3.4144   3.4144
     3.4258   3.4448   3.4448   3.4448   4.0888   4.0888   4.0888   4.3385
     4.3385   4.3385   4.3577   4.3577   4.3577   4.4168   4.4168   4.4168
     4.5316   4.5316   4.5316   4.6123   4.6123   4.6429   4.6429   4.6429
     4.6483   4.6483   4.6483   4.6564   4.6628   4.6628   4.6628   4.6779
     4.6779   4.8023   4.8023   4.8023   5.4281   5.4281   5.4281   6.6067
     6.6067   6.6833   6.6833   6.6833   7.5829   8.8123   8.8123   8.8123
     8.8802   9.0281   9.0281   9.0281   9.6387   9.6387   9.6395   9.9833
     9.9833   9.9833   9.9921   9.9921  10.0109  10.1190  10.1190  10.1190
    10.1249  10.1249  10.1313  10.3140  10.3140  10.3140  10.3187  10.3187
    10.3223  10.3223  10.3223  10.3828  10.3828  10.3828  10.8803  11.2236
    11.2236  11.2236  11.3038  11.3038  11.3038  11.4794  11.4794  11.4837
    11.4837  11.4837  11.9527  11.9528  11.9528  11.9545  12.1670  12.1670
    12.1671  12.1757  12.1758  12.1769  12.1918

     occupation numbers
     1.0000   1.0000   1.0000   1.0000   1.0000   1.0000   1.0000   1.0000
     1.0000   1.0000   1.0000   1.0000   1.0000   1.0000   1.0000   1.0000
     1.0000   1.0000   1.0000   1.0000   1.0000   1.0000   1.0000   1.0000
     1.0000   1.0000   1.0000   1.0000   1.0000   1.0000   1.0000   1.0000
     1.0000   1.0000   1.0000   1.0000   1.0000   1.0000   1.0000   1.0000
     1.0000   1.0000   1.0000   1.0000   1.0000   1.0000   1.0000   1.0000
     1.0000   1.0000   1.0000   1.0000   1.0000   1.0000   1.0000   1.0000
     1.0000   1.0000   1.0000   1.0000   1.0000   1.0000   1.0000   1.0000
     1.0000   1.0000   1.0000   1.0000   1.0000   1.0000   1.0000   1.0000
     1.0000   1.0000   1.0000   1.0000   1.0000   1.0000   1.0000   1.0000
     1.0000   1.0000   1.0000   1.0000   1.0000   1.0000   1.0000   1.0000
     1.0000   1.0000   1.0000   1.0000   1.0000   1.0000   1.0000   1.0000
     1.0000   1.0000   1.0000   1.0000   1.0000   1.0000   1.0000   1.0000
     1.0000   1.0000   1.0000   1.0000   1.0000   1.0000   1.0000   1.0000
     1.0000   1.0000   1.0000   1.0000   1.0000   1.0000   1.0000   1.0000
     1.0000   1.0000   1.0000   1.0000   1.0000   1.0000   1.0000   1.0000
     1.0000   1.0000   1.0000   1.0000   1.0000   1.0000   1.0000   1.0000
     1.0000   1.0000   1.0000   1.0000   1.0000   1.0000   1.0000   1.0000
     1.0000   1.0000   1.0000   1.0000   1.0000   1.0000   1.0000   1.0000
     1.0000   1.0000   1.0000   1.0000   1.0000   1.0000   1.0000   1.0000
     1.0000   1.0000   1.0000   1.0000   1.0000   1.0000   1.0000   1.0000
     1.0000   1.0000   1.0000   1.0000   1.0000   1.0000   1.0000   1.0000
     1.0000   1.0000   1.0000   1.0000   1.0000   1.0000   1.0000   1.0000
     1.0000   1.0000   1.0000   1.0000   1.0000   1.0000   1.0000   1.0000
     1.0000   1.0000   1.0000   1.0000   1.0000   1.0000   1.0000   1.0000
     1.0000   1.0000   1.0000   1.0000   1.0000   1.0000   1.0000   1.0000
     1.0000   1.0000   1.0000   1.0000   1.0000   1.0000   1.0000   1.0000
     1.0000   1.0000   1.0000   1.0000   1.0000   1.0000   1.0000   1.0000
     1.0000   1.0000   1.0000   1.0000   1.0000   1.0000   1.0000   1.0000
     1.0000   1.0000   1.0000   1.0000   1.0000   1.0000   1.0000   1.0000
     1.0000   1.0000   1.0000   1.0000   1.0000   1.0000   1.0000   1.0000
     1.0000   1.0000   1.0000   1.0000   1.0000   1.0000   1.0000   1.0000
     1.0000   1.0000   1.0000   1.0000   1.0000   1.0000   1.0000   1.0000
     1.0000   1.0000   1.0000   1.0000   1.0000   1.0000   1.0000   1.0000
     1.0000   1.0000   1.0000   1.0000   1.0000   1.0000   1.0000   1.0000
     1.0000   1.0000   1.0000   1.0000   1.0000   1.0000   1.0000   1.0000
     1.0000   1.0000   1.0000   1.0000   1.0000   0.0000   0.0000   0.0000
     0.0000   0.0000   0.0000   0.0000   0.0000   0.0000   0.0000   0.0000
     0.0000   0.0000   0.0000   0.0000   0.0000   0.0000   0.0000   0.0000
     0.0000   0.0000   0.0000   0.0000   0.0000   0.0000   0.0000   0.0000
     0.0000   0.0000   0.0000   0.0000   0.0000   0.0000   0.0000   0.0000
     0.0000   0.0000   0.0000   0.0000   0.0000   0.0000   0.0000   0.0000
     0.0000   0.0000   0.0000   0.0000   0.0000   0.0000   0.0000   0.0000
     0.0000   0.0000   0.0000   0.0000   0.0000

[...]

          k =-0.5000-0.5000-0.5000 (269968 PWs)   bands (ev):

[...]

 ------ SPIN DOWN ----------

[...]

          k = 0.2500-0.5000-0.5000 (269956 PWs)   bands (ev):

[...]

          k =-0.5000-0.5000-0.5000 (269968 PWs)   bands (ev):

   -76.9432 -43.1066 -43.1066 -43.1066  -7.1301  -7.0867  -7.0867  -7.0867
    -7.0365  -7.0365  -7.0365  -6.8419  -6.5192  -6.5192  -6.5192  -6.4813
    -6.4584  -6.4584  -6.4579  -6.4579  -6.4579  -6.4544  -6.4544  -6.4544
    -6.4429  -6.4429  -6.4429  -6.4398  -6.4398  -6.4398  -6.4380  -6.4380
    -6.1067  -5.9956  -5.9956  -5.9956  -0.6942  -0.6942  -0.6942  -0.6684
    -0.6684  -0.6557  -0.6465  -0.6465  -0.6465  -0.6450  -0.6450  -0.6450
    -0.6439  -0.6325  -0.6325  -0.6325  -0.6304  -0.6304  -0.6304  -0.6281
    -0.6281  -0.6250  -0.6250  -0.6250  -0.6098  -0.6079  -0.6079  -0.6079
    -0.6003  -0.6003  -0.5867  -0.5867  -0.5867  -0.5844  -0.5844  -0.5844
    -0.5768  -0.5768  -0.5768  -0.5753  -0.5753  -0.5753  -0.5234  -0.5119
    -0.5119  -0.5059  -0.4855  -0.4855  -0.4855  -0.4775  -0.4775  -0.4775
    -0.4717  -0.4717  -0.4717  -0.4680  -0.4680  -0.4680  -0.4668  -0.4668
    -0.4402  -0.4402  -0.4402  -0.4107  -0.4107  -0.4107  -0.3958  -0.3958
    -0.3897  -0.3700  -0.3700  -0.3700  -0.3432  -0.3432  -0.3432  -0.3412
    -0.3412  -0.3382  -0.3382  -0.3382  -0.3315  -0.3315  -0.3315  -0.3250
    -0.3250  -0.3250  -0.3234  -0.3095  -0.3095  -0.3095  -0.2679  -0.2679
    -0.2600  -0.2572  -0.2572  -0.2329  -0.2329  -0.2329  -0.2193  -0.2193
    -0.2161  -0.2161  -0.2161  -0.2128  -0.2128  -0.2128  -0.1942  -0.1942
    -0.1942  -0.1897  -0.1765  -0.1765  -0.1765  -0.1589  -0.1589  -0.1589
    -0.1427  -0.1427  -0.1427  -0.1216  -0.1216  -0.1216  -0.1002  -0.1002
    -0.1002  -0.0849  -0.0849  -0.0787  -0.0787  -0.0787  -0.0695  -0.0620
    -0.0615  -0.0615  -0.0615  -0.0532  -0.0532  -0.0532  -0.0363  -0.0363
    -0.0299  -0.0299  -0.0299  -0.0123  -0.0123  -0.0113  -0.0113  -0.0113
     0.0057   0.0057   0.0057   0.0078   0.0078   0.0078   0.0706   1.0946
     1.1002   1.1002   1.1002   1.1232   1.1232   1.1232   1.1242   1.1242
     1.1280   1.1280   1.1280   1.1440   1.1440   1.1440   1.1776   1.1776
     1.2175   1.2175   1.2175   1.2650   1.2650   1.2650   1.9451   2.7245
     2.7245   2.7245   2.7358   2.7689   2.7689   2.7689   2.9578   3.1707
     3.1707   3.1707   3.1767   3.1767   3.1767   3.1768   3.1768   3.1902
     3.2009   3.2009   3.2009   3.2195   3.2195   3.2195   3.2366   3.2366
     3.2413   3.2413   3.2413   3.3734   3.3734   3.3734   3.6376   3.9519
     3.9519   3.9519   3.9597   3.9597   3.9597   3.9638   3.9741   3.9741
     3.9784   3.9784   3.9784   4.0004   4.0004   4.0004   4.0046   4.0046
     4.0110   4.1403   4.1403   4.1403   4.1683   4.1683   4.1683   5.0138
     5.0138   5.0138   5.0642   5.0642   5.0726   5.0726   5.0726   5.0848
     5.0848   5.0848   5.0909   5.0909   5.1311   5.1311   5.1311   7.9309
     7.9309   8.9021   8.9368   8.9368   8.9368   8.9577   8.9577   8.9577
     9.1012   9.1012   9.1012   9.1964   9.8083   9.8083   9.8083   9.8237
     9.8237   9.8237   9.8270   9.8300   9.8300   9.8501   9.8501   9.8501
     9.8662   9.8662   9.8662   9.8759   9.8759   9.8759  10.1570  10.1570
    10.2260  10.2260  10.2260  10.4785  11.4173  11.4173  11.4173  11.4272
    11.4272  11.4272  11.4297  11.4413  11.4413  11.4469  11.4469  11.4469
    11.4751  11.4751  11.4751  11.4881  11.4881  11.5492  11.5492  11.5492
    11.7908  11.7908  11.7908  12.2146  12.4124

     occupation numbers
     1.0000   1.0000   1.0000   1.0000   1.0000   1.0000   1.0000   1.0000
     1.0000   1.0000   1.0000   1.0000   1.0000   1.0000   1.0000   1.0000
     1.0000   1.0000   1.0000   1.0000   1.0000   1.0000   1.0000   1.0000
     1.0000   1.0000   1.0000   1.0000   1.0000   1.0000   1.0000   1.0000
     1.0000   1.0000   1.0000   1.0000   1.0000   1.0000   1.0000   1.0000
     1.0000   1.0000   1.0000   1.0000   1.0000   1.0000   1.0000   1.0000
     1.0000   1.0000   1.0000   1.0000   1.0000   1.0000   1.0000   1.0000
     1.0000   1.0000   1.0000   1.0000   1.0000   1.0000   1.0000   1.0000
     1.0000   1.0000   1.0000   1.0000   1.0000   1.0000   1.0000   1.0000
     1.0000   1.0000   1.0000   1.0000   1.0000   1.0000   1.0000   1.0000
     1.0000   1.0000   1.0000   1.0000   1.0000   1.0000   1.0000   1.0000
     1.0000   1.0000   1.0000   1.0000   1.0000   1.0000   1.0000   1.0000
     1.0000   1.0000   1.0000   1.0000   1.0000   1.0000   1.0000   1.0000
     1.0000   1.0000   1.0000   1.0000   1.0000   1.0000   1.0000   1.0000
     1.0000   1.0000   1.0000   1.0000   1.0000   1.0000   1.0000   1.0000
     1.0000   1.0000   1.0000   1.0000   1.0000   1.0000   1.0000   1.0000
     1.0000   1.0000   1.0000   1.0000   1.0000   1.0000   1.0000   1.0000
     1.0000   1.0000   1.0000   1.0000   1.0000   1.0000   1.0000   1.0000
     1.0000   1.0000   1.0000   1.0000   1.0000   1.0000   1.0000   1.0000
     1.0000   1.0000   1.0000   1.0000   1.0000   1.0000   1.0000   1.0000
     1.0000   1.0000   1.0000   1.0000   1.0000   1.0000   1.0000   1.0000
     1.0000   1.0000   1.0000   1.0000   1.0000   1.0000   1.0000   1.0000
     1.0000   1.0000   1.0000   1.0000   1.0000   1.0000   1.0000   1.0000
     1.0000   1.0000   1.0000   1.0000   1.0000   1.0000   1.0000   1.0000
     1.0000   1.0000   1.0000   1.0000   1.0000   1.0000   1.0000   1.0000
     1.0000   1.0000   1.0000   1.0000   1.0000   1.0000   1.0000   1.0000
     1.0000   1.0000   1.0000   1.0000   1.0000   1.0000   1.0000   1.0000
     1.0000   1.0000   1.0000   1.0000   1.0000   1.0000   1.0000   1.0000
     1.0000   1.0000   1.0000   1.0000   1.0000   1.0000   1.0000   1.0000
     1.0000   1.0000   1.0000   1.0000   1.0000   1.0000   1.0000   1.0000
     1.0000   1.0000   1.0000   1.0000   1.0000   1.0000   1.0000   1.0000
     1.0000   1.0000   1.0000   1.0000   1.0000   1.0000   1.0000   1.0000
     1.0000   1.0000   1.0000   1.0000   1.0000   1.0000   1.0000   1.0000
     1.0000   1.0000   1.0000   1.0000   1.0000   1.0000   1.0000   1.0000
     1.0000   1.0000   1.0000   1.0000   1.0000   1.0000   1.0000   1.0000
     1.0000   1.0000   1.0000   1.0000   1.0000   1.0000   1.0000   1.0000
     1.0000   0.0000   0.0000   0.0000   0.0000   0.0000   0.0000   0.0000
     0.0000   0.0000   0.0000   0.0000   0.0000   0.0000   0.0000   0.0000
     0.0000   0.0000   0.0000   0.0000   0.0000   0.0000   0.0000   0.0000
     0.0000   0.0000   0.0000   0.0000   0.0000   0.0000   0.0000   0.0000
     0.0000   0.0000   0.0000   0.0000   0.0000   0.0000   0.0000   0.0000
     0.0000   0.0000   0.0000   0.0000   0.0000   0.0000   0.0000   0.0000
     0.0000   0.0000   0.0000   0.0000   0.0000   0.0000   0.0000   0.0000
     0.0000   0.0000   0.0000   0.0000   0.0000

     the Fermi energy is     7.9813 ev

!    total energy              =  -10009.27277801 Ry
     total all-electron energy =   -139453.112876 Ry
     estimated scf accuracy    <          9.4E-09 Ry
     smearing contrib. (-TS)   =      -0.00012503 Ry
     internal energy E=F+TS    =  -10009.27265299 Ry

     The total energy is F=E-TS. E is the sum of the following terms:
     one-electron contribution =   -2869.56593329 Ry
     hartree contribution      =    2009.41003052 Ry
     xc contribution           =   -1656.05543611 Ry
     ewald contribution        =   -2975.94713457 Ry
     one-center paw contrib.   =   -4517.11417954 Ry
      -> PAW hartree energy AE =     123.39481436 Ry
      -> PAW hartree energy PS =    -122.75342347 Ry
      -> PAW xc energy AE      =    -143.21861906 Ry
      -> PAW xc energy PS      =      47.15703635 Ry
      -> total E_H with PAW    =    2010.05142142 Ry
      -> total E_XC with PAW   =   -1752.11701882 Ry

     total magnetization       =     3.08 Bohr mag/cell
     absolute magnetization    =     3.24 Bohr mag/cell

     convergence has been achieved in  18 iterations

     Writing all to output data dir ./out/Fe_qn1_unrlxd.save/

     General routines

     Parallel routines

     PAW routines

   This run was terminated on:  14:32:39   5Jul2024

   JOB DONE.