     Program PWSCF v.7.2 starts on  7Jul2024 at  1:10:59

     Reading input from 1.Fe_vac_in_ZnS.scf.qn1.unrlxd.in

     Current dimensions of program PWSCF are:
     Max number of different atomic species (ntypx) = 10
     Max number of k-points (npk) =  40000
     Max angular momentum in pseudopotentials (lmaxx) =  4
     file S.pbe-n-kjpaw_psl.1.0.0.UPF: wavefunction(s)  3S 3P renormalized
     file Zn.pbe-dnl-kjpaw_psl.1.0.0.UPF: wavefunction(s)  4S 3D renormalized
     file Fe.pbe-spn-kjpaw_psl.1.0.0.UPF: wavefunction(s)  3P 3D renormalized

     K-points division:     npool     =      13
     R & G space division:  proc/nbgrp/npool/nimage =     112
     Subspace diagonalization in iterative solution of the eigenvalue problem:
     one sub-group per band group will be used

     Using Slab Decomposition

     bravais-lattice index     =            1
     lattice parameter (alat)  =      20.5686  a.u.
     unit-cell volume          =    8701.8437 (a.u.)^3
     number of atoms/cell      =           63
     number of atomic types    =            3
     number of electrons       =       575.00
     number of Kohn-Sham states=          346
     kinetic-energy cutoff     =     150.0000  Ry
     charge density cutoff     =     600.0000  Ry
     scf convergence threshold =      1.0E-08
     mixing beta               =       0.7000
     number of iterations used =            8  plain     mixing
     Exchange-correlation= SLA  PW   PBX  PBC
                           (   1   4   3   4   0   0   0)

     celldm(1)=  20.568554  celldm(2)=   0.000000  celldm(3)=   0.000000
     celldm(4)=   0.000000  celldm(5)=   0.000000  celldm(6)=   0.000000

     crystal axes: (cart. coord. in units of alat)
               a(1) = (   1.000000   0.000000   0.000000 )
               a(2) = (   0.000000   1.000000   0.000000 )
               a(3) = (   0.000000   0.000000   1.000000 )

     reciprocal axes: (cart. coord. in units 2 pi/alat)
               b(1) = (  1.000000  0.000000  0.000000 )
               b(2) = (  0.000000  1.000000  0.000000 )
               b(3) = (  0.000000  0.000000  1.000000 )

     PseudoPot. # 1 for S  read from file:
     /arf/home/amuhaymin/pseudo/S.pbe-n-kjpaw_psl.1.0.0.UPF
     MD5 check sum: fb45dfebcf3e72a4e1bd4a866ec2e262
     Pseudo is Projector augmented-wave + core cor, Zval =  6.0
     Generated using &quot;atomic&quot; code by A. Dal Corso  v.6.3
     Shape of augmentation charge: PSQ
     Using radial grid of 1151 points,  6 beta functions with:
                l(1) =   0
                l(2) =   0
                l(3) =   1
                l(4) =   1
                l(5) =   2
                l(6) =   2
     Q(r) pseudized with 0 coefficients

     PseudoPot. # 2 for Zn read from file:
     /arf/home/amuhaymin/pseudo/Zn.pbe-dnl-kjpaw_psl.1.0.0.UPF
     MD5 check sum: c608214d9520ac179f507641260889e3
     Pseudo is Projector augmented-wave + core cor, Zval = 12.0
     Generated using &quot;atomic&quot; code by A. Dal Corso  v.6.2.2
     Shape of augmentation charge: PSQ
     Using radial grid of 1201 points,  6 beta functions with:
                l(1) =   0
                l(2) =   0
                l(3) =   1
                l(4) =   1
                l(5) =   2
                l(6) =   2
     Q(r) pseudized with 0 coefficients

     PseudoPot. # 3 for Fe read from file:
     /arf/home/amuhaymin/pseudo/Fe.pbe-spn-kjpaw_psl.1.0.0.UPF
     MD5 check sum: fc81f059e5c5069939230b1155715ae8
     Pseudo is Projector augmented-wave + core cor, Zval = 16.0
     Generated using &quot;atomic&quot; code by A. Dal Corso  v.6.3
     Shape of augmentation charge: PSQ
     Using radial grid of 1191 points,  6 beta functions with:
                l(1) =   0
                l(2) =   0
                l(3) =   1
                l(4) =   1
                l(5) =   2
                l(6) =   2
     Q(r) pseudized with 0 coefficients

     atomic species   valence    mass     pseudopotential
        S              6.00    32.06500     S ( 1.00)
        Zn            12.00    65.38000     Zn( 1.00)
        Fe            16.00    63.54600     Fe( 1.00)

     Starting magnetic structure
     atomic species   magnetization
        S            0.000
        Zn           0.000
        Fe           0.188

      6 Sym. Ops. (no inversion) found

                                    s                        frac. trans.

      isym =  1     identity

 cryst.   s( 1) = (     1          0          0      )
                  (     0          1          0      )
                  (     0          0          1      )

 cart.    s( 1) = (  1.0000000  0.0000000  0.0000000 )
                  (  0.0000000  1.0000000  0.0000000 )
                  (  0.0000000  0.0000000  1.0000000 )

      isym =  2     120 deg rotation - cart. axis [-1,-1,-1]

[...]

      isym =  3     120 deg rotation - cart. axis [1,1,1]

[...]

      isym =  4     inv. 180 deg rotation - cart. axis [1,-1,0]

[...]

      isym =  6     inv. 180 deg rotation - cart. axis [0,1,-1]

 cryst.   s( 6) = (     1          0          0      )
                  (     0          0          1      )
                  (     0          1          0      )

 cart.    s( 6) = (  1.0000000  0.0000000  0.0000000 )
                  (  0.0000000  0.0000000  1.0000000 )
                  (  0.0000000  1.0000000  0.0000000 )

     point group C_3v (3m)
     there are  3 classes
     the character table:

       E     2C3   3s_v
A_1    1.00  1.00  1.00
A_2    1.00  1.00 -1.00
E      2.00 -1.00  0.00

     the symmetry operations in each class and the name of the first element:

     E        1
          identity
     2C3      2    3
          120 deg rotation - cart. axis [-1,-1,-1]
     3s_v     4    5    6
          inv. 180 deg rotation - cart. axis [1,-1,0]

   Cartesian axes

     site n.     atom                  positions (alat units)
         1           Zn  tau(   1) = (   0.0000000   0.0000000   0.0000000  )
         2           Zn  tau(   2) = (   0.0000000   0.2500000   0.2500000  )
         3           Zn  tau(   3) = (   0.2500000   0.0000000   0.2500000  )
         4           Zn  tau(   4) = (   0.2500000   0.2500000   0.0000000  )
         5           S   tau(   5) = (   0.1250000   0.3750000   0.3750000  )
         6           S   tau(   6) = (   0.1250000   0.1250000   0.1250000  )
         7           S   tau(   7) = (   0.3750000   0.3750000   0.1250000  )
         8           S   tau(   8) = (   0.3750000   0.1250000   0.3750000  )
         9           Zn  tau(   9) = (   0.0000000   0.0000000   0.5000000  )
        10           Zn  tau(  10) = (   0.0000000   0.2500000   0.7500000  )
        11           Zn  tau(  11) = (   0.2500000   0.0000000   0.7500000  )
        12           Zn  tau(  12) = (   0.2500000   0.2500000   0.5000000  )
        13           S   tau(  13) = (   0.1250000   0.3750000   0.8750000  )
        14           S   tau(  14) = (   0.1250000   0.1250000   0.6250000  )
        15           S   tau(  15) = (   0.3750000   0.3750000   0.6250000  )
        16           S   tau(  16) = (   0.3750000   0.1250000   0.8750000  )
        17           Zn  tau(  17) = (   0.0000000   0.5000000   0.0000000  )
        18           Zn  tau(  18) = (   0.0000000   0.7500000   0.2500000  )
        19           Zn  tau(  19) = (   0.2500000   0.5000000   0.2500000  )
        20           Zn  tau(  20) = (   0.2500000   0.7500000   0.0000000  )
        21           S   tau(  21) = (   0.1250000   0.8750000   0.3750000  )
        22           S   tau(  22) = (   0.1250000   0.6250000   0.1250000  )
        23           S   tau(  23) = (   0.3750000   0.8750000   0.1250000  )
        24           S   tau(  24) = (   0.3750000   0.6250000   0.3750000  )
        25           Zn  tau(  25) = (   0.0000000   0.5000000   0.5000000  )
        26           Zn  tau(  26) = (   0.0000000   0.7500000   0.7500000  )
        27           Zn  tau(  27) = (   0.2500000   0.5000000   0.7500000  )
        28           Zn  tau(  28) = (   0.2500000   0.7500000   0.5000000  )
        29           S   tau(  29) = (   0.1250000   0.8750000   0.8750000  )
        30           S   tau(  30) = (   0.1250000   0.6250000   0.6250000  )
        31           S   tau(  31) = (   0.3750000   0.8750000   0.6250000  )
        32           S   tau(  32) = (   0.3750000   0.6250000   0.8750000  )
        33           Zn  tau(  33) = (   0.5000000   0.0000000   0.0000000  )
        34           Zn  tau(  34) = (   0.5000000   0.2500000   0.2500000  )
        35           Zn  tau(  35) = (   0.7500000   0.0000000   0.2500000  )
        36           Zn  tau(  36) = (   0.7500000   0.2500000   0.0000000  )
        37           S   tau(  37) = (   0.6250000   0.3750000   0.3750000  )
        38           S   tau(  38) = (   0.6250000   0.1250000   0.1250000  )
        39           S   tau(  39) = (   0.8750000   0.3750000   0.1250000  )
        40           S   tau(  40) = (   0.8750000   0.1250000   0.3750000  )
        41           Zn  tau(  41) = (   0.5000000   0.0000000   0.5000000  )
        42           Zn  tau(  42) = (   0.5000000   0.2500000   0.7500000  )
        43           Zn  tau(  43) = (   0.7500000   0.0000000   0.7500000  )
        44           Zn  tau(  44) = (   0.7500000   0.2500000   0.5000000  )
        45           S   tau(  45) = (   0.6250000   0.3750000   0.8750000  )
        46           S   tau(  46) = (   0.6250000   0.1250000   0.6250000  )
        47           S   tau(  47) = (   0.8750000   0.3750000   0.6250000  )
        48           S   tau(  48) = (   0.8750000   0.1250000   0.8750000  )
        49           Zn  tau(  49) = (   0.5000000   0.5000000   0.0000000  )
        50           Zn  tau(  50) = (   0.5000000   0.7500000   0.2500000  )
        51           Zn  tau(  51) = (   0.7500000   0.5000000   0.2500000  )
        52           Zn  tau(  52) = (   0.7500000   0.7500000   0.0000000  )
        53           S   tau(  53) = (   0.6250000   0.8750000   0.3750000  )
        54           S   tau(  54) = (   0.6250000   0.6250000   0.1250000  )
        55           S   tau(  55) = (   0.8750000   0.8750000   0.1250000  )
        56           S   tau(  56) = (   0.8750000   0.6250000   0.3750000  )
        57           Fe  tau(  57) = (   0.5000000   0.5000000   0.5000000  )
        58           Zn  tau(  58) = (   0.5000000   0.7500000   0.7500000  )
        59           Zn  tau(  59) = (   0.7500000   0.5000000   0.7500000  )
        60           Zn  tau(  60) = (   0.7500000   0.7500000   0.5000000  )
        61           S   tau(  61) = (   0.6250000   0.8750000   0.8750000  )
        62           S   tau(  62) = (   0.8750000   0.8750000   0.6250000  )
        63           S   tau(  63) = (   0.8750000   0.6250000   0.8750000  )

   Crystallographic axes

     site n.     atom                  positions (cryst. coord.)
         1           Zn  tau(   1) = (  0.0000000  0.0000000  0.0000000  )
         2           Zn  tau(   2) = (  0.0000000  0.2500000  0.2500000  )
         3           Zn  tau(   3) = (  0.2500000  0.0000000  0.2500000  )
         4           Zn  tau(   4) = (  0.2500000  0.2500000  0.0000000  )
[...]
     atom  28 (R=0.089)  charge= 10.1642  magn=  0.0015
     atom  29 (R=0.089)  charge=  3.9991  magn= -0.0002
     atom  30 (R=0.089)  charge=  3.9983  magn= -0.0003
     atom  31 (R=0.089)  charge=  3.9951  magn= -0.0005
     atom  32 (R=0.089)  charge=  3.9951  magn= -0.0005
     atom  33 (R=0.089)  charge= 10.1652  magn=  0.0004
     atom  34 (R=0.089)  charge= 10.1652  magn= -0.0006
     atom  35 (R=0.089)  charge= 10.1643  magn= -0.0006
     atom  36 (R=0.089)  charge= 10.1643  magn= -0.0006
     atom  37 (R=0.089)  charge=  3.9929  magn=  0.0126
     atom  38 (R=0.089)  charge=  3.9991  magn=  0.0003
     atom  39 (R=0.089)  charge=  3.9992  magn=  0.0013
     atom  40 (R=0.089)  charge=  3.9992  magn=  0.0013
     atom  41 (R=0.089)  charge= 10.1622  magn=  0.0000
     atom  42 (R=0.089)  charge= 10.1642  magn=  0.0015
     atom  43 (R=0.089)  charge= 10.1626  magn= -0.0001
     atom  44 (R=0.089)  charge= 10.1642  magn=  0.0015
     atom  45 (R=0.089)  charge=  3.9951  magn= -0.0005
     atom  46 (R=0.089)  charge=  3.9983  magn= -0.0003
     atom  47 (R=0.089)  charge=  3.9951  magn= -0.0005
     atom  48 (R=0.089)  charge=  3.9991  magn= -0.0002
     atom  49 (R=0.089)  charge= 10.1622  magn=  0.0000
     atom  50 (R=0.089)  charge= 10.1642  magn=  0.0015
     atom  51 (R=0.089)  charge= 10.1642  magn=  0.0015
     atom  52 (R=0.089)  charge= 10.1626  magn= -0.0001
     atom  53 (R=0.089)  charge=  3.9951  magn= -0.0005
     atom  54 (R=0.089)  charge=  3.9983  magn= -0.0003
     atom  55 (R=0.089)  charge=  3.9991  magn= -0.0002
     atom  56 (R=0.089)  charge=  3.9951  magn= -0.0005
     atom  57 (R=0.089)  charge= 14.0704  magn=  2.6339
     atom  58 (R=0.089)  charge= 10.1286  magn= -0.0023
     atom  59 (R=0.089)  charge= 10.1286  magn= -0.0023
     atom  60 (R=0.089)  charge= 10.1286  magn= -0.0023
     atom  61 (R=0.089)  charge=  3.9960  magn= -0.0006
     atom  62 (R=0.089)  charge=  3.9960  magn= -0.0006
     atom  63 (R=0.089)  charge=  3.9960  magn= -0.0006

     End of self-consistent calculation

 ------ SPIN UP ------------

          k = 0.0000 0.0000 0.0000 (269825 PWs)   bands (ev):

   -80.2034 -46.3388 -46.3388 -46.2470  -7.6153  -7.1023  -7.1023  -7.0906
    -7.0906  -7.0812  -7.0316  -6.8025  -6.8025  -6.7991  -6.7913  -6.7788
    -6.7788  -6.7787  -6.7774  -6.7774  -6.7726  -6.7709  -6.7709  -6.6458
    -6.6458  -6.6067  -6.4820  -6.4786  -6.4786  -6.4467  -6.4467  -6.4459
    -6.3618  -6.1936  -6.1936  -0.9103  -0.9100  -0.9100  -0.9003  -0.9003
    -0.8964  -0.8530  -0.8530  -0.8370  -0.8330  -0.8330  -0.8253  -0.7885
    -0.7852  -0.7852  -0.7811  -0.7811  -0.7693  -0.7693  -0.7626  -0.7626
    -0.7623  -0.7613  -0.7478  -0.7439  -0.7439  -0.7396  -0.7392  -0.7328
    -0.7328  -0.7232  -0.7232  -0.7182  -0.7182  -0.7182  -0.7165  -0.7151
    -0.7151  -0.7080  -0.7079  -0.7067  -0.7067  -0.6993  -0.6993  -0.6880
    -0.6810  -0.6810  -0.6801  -0.6599  -0.6589  -0.6589  -0.6536  -0.6525
    -0.6525  -0.6278  -0.6008  -0.6008  -0.5975  -0.5975  -0.5920  -0.5824
    -0.5824  -0.5782  -0.5705  -0.5705  -0.5589  -0.5520  -0.5520  -0.5508
    -0.5508  -0.5353  -0.5353  -0.5329  -0.5207  -0.5171  -0.5171  -0.5098
    -0.4852  -0.4721  -0.4721  -0.4599  -0.4579  -0.4579  -0.4460  -0.4460
    -0.4434  -0.4434  -0.4431  -0.4423  -0.4289  -0.4289  -0.4150  -0.4116
    -0.4116  -0.4073  -0.4000  -0.3942  -0.3942  -0.3855  -0.3855  -0.3812
    -0.3812  -0.3798  -0.3690  -0.3690  -0.3670  -0.3667  -0.3647  -0.3647
    -0.3606  -0.3606  -0.3606  -0.3574  -0.3319  -0.3319  -0.3315  -0.3174
    -0.3174  -0.3057  -0.3027  -0.3027  -0.2979  -0.2963  -0.2963  -0.2904
    -0.2813  -0.2813  -0.2725  -0.2725  -0.2702  -0.2694  -0.2559  -0.2559
    -0.2388  -0.1808  -0.1708  -0.1708  -0.1683  -0.1683  -0.1590  -0.1574
    -0.1440  -0.1440  -0.1319  -0.1301  -0.1301  -0.1176  -0.1176  -0.1123
    -0.0311   0.0054   0.0054   0.0470   0.0470   0.0561   0.2313   0.2975
     0.3202   0.3202   0.8478   0.8571   0.8571   0.8939   0.8941   0.8941
     1.0432   1.0432   1.1140   1.3063   1.4331   1.4331   1.4902   1.4902
     1.5107   1.5149   1.5149   1.5182   1.7176   1.7176   2.0931   2.6463
     2.6983   2.6983   2.7214   2.7221   2.7221   2.7237   2.7344   2.7444
     2.7444   2.7564   2.7564   2.7653   2.7984   2.7984   2.8460   2.8460
     2.8896   2.9082   2.9082   2.9420   2.9483   2.9483   2.9496   3.0003
     3.0003   3.0848   3.1225   3.1225   3.2515   3.2527   3.2601   3.2601
     3.5958   3.5958   3.6536   3.9639   3.9639   4.1737   4.1814   4.1814
     4.1967   4.2007   4.2065   4.2065   4.3036   4.3290   4.3290   4.3655
     4.3655   4.4745   4.4745   4.4785   4.4786   4.4850   4.4850   4.4886
     4.4886   4.4930   4.4994   4.5034   4.5034   4.5409   4.5409   4.6248
     5.2246   5.2246   5.2248   5.6422   6.3725   6.3725   6.3940   6.3940
     6.5925   7.7708   8.6165   8.6165   8.7021   8.7694   8.8488   8.8488
     8.9625   8.9625   9.1229   9.4808   9.5017   9.5017   9.5296   9.8373
     9.8373   9.9193   9.9451   9.9451   9.9558   9.9898   9.9912   9.9912
    10.0023  10.0023  10.1482  10.1608  10.1608  10.1664  10.1664  10.1982
    10.1982  10.2264  10.3823  10.6482  10.6482  10.6971  11.0564  11.1433
    11.1433  11.1850  11.1850  11.3142  11.3143  11.3156  11.3324  11.6532
    11.6532  11.7057  11.8152  11.8448  11.8449  11.8731  12.0068  12.0070
    12.0080  12.0240

     occupation numbers
     1.0000   1.0000   1.0000   1.0000   1.0000   1.0000   1.0000   1.0000
     1.0000   1.0000   1.0000   1.0000   1.0000   1.0000   1.0000   1.0000
     1.0000   1.0000   1.0000   1.0000   1.0000   1.0000   1.0000   1.0000
     1.0000   1.0000   1.0000   1.0000   1.0000   1.0000   1.0000   1.0000
     1.0000   1.0000   1.0000   1.0000   1.0000   1.0000   1.0000   1.0000
     1.0000   1.0000   1.0000   1.0000   1.0000   1.0000   1.0000   1.0000
     1.0000   1.0000   1.0000   1.0000   1.0000   1.0000   1.0000   1.0000
     1.0000   1.0000   1.0000   1.0000   1.0000   1.0000   1.0000   1.0000
     1.0000   1.0000   1.0000   1.0000   1.0000   1.0000   1.0000   1.0000
     1.0000   1.0000   1.0000   1.0000   1.0000   1.0000   1.0000   1.0000
     1.0000   1.0000   1.0000   1.0000   1.0000   1.0000   1.0000   1.0000
     1.0000   1.0000   1.0000   1.0000   1.0000   1.0000   1.0000   1.0000
     1.0000   1.0000   1.0000   1.0000   1.0000   1.0000   1.0000   1.0000
     1.0000   1.0000   1.0000   1.0000   1.0000   1.0000   1.0000   1.0000
     1.0000   1.0000   1.0000   1.0000   1.0000   1.0000   1.0000   1.0000
     1.0000   1.0000   1.0000   1.0000   1.0000   1.0000   1.0000   1.0000
     1.0000   1.0000   1.0000   1.0000   1.0000   1.0000   1.0000   1.0000
     1.0000   1.0000   1.0000   1.0000   1.0000   1.0000   1.0000   1.0000
     1.0000   1.0000   1.0000   1.0000   1.0000   1.0000   1.0000   1.0000
     1.0000   1.0000   1.0000   1.0000   1.0000   1.0000   1.0000   1.0000
     1.0000   1.0000   1.0000   1.0000   1.0000   1.0000   1.0000   1.0000
     1.0000   1.0000   1.0000   1.0000   1.0000   1.0000   1.0000   1.0000
     1.0000   1.0000   1.0000   1.0000   1.0000   1.0000   1.0000   1.0000
     1.0000   1.0000   1.0000   1.0000   1.0000   1.0000   1.0000   1.0000
     1.0000   1.0000   1.0000   1.0000   1.0000   1.0000   1.0000   1.0000
     1.0000   1.0000   1.0000   1.0000   1.0000   1.0000   1.0000   1.0000
     1.0000   1.0000   1.0000   1.0000   1.0000   1.0000   1.0000   1.0000
     1.0000   1.0000   1.0000   1.0000   1.0000   1.0000   1.0000   1.0000
     1.0000   1.0000   1.0000   1.0000   1.0000   1.0000   1.0000   1.0000
     1.0000   1.0000   1.0000   1.0000   1.0000   1.0000   1.0000   1.0000
     1.0000   1.0000   1.0000   1.0000   1.0000   1.0000   1.0000   1.0000
     1.0000   1.0000   1.0000   1.0000   1.0000   1.0000   1.0000   1.0000
     1.0000   1.0000   1.0000   1.0000   1.0000   1.0000   1.0000   1.0000
     1.0000   1.0000   1.0000   1.0000   1.0000   1.0000   1.0000   1.0000
     1.0000   1.0000   1.0000   1.0000   1.0000   1.0000   1.0000   1.0000
     1.0000   1.0000   1.0000   1.0000   1.0000   1.0000   1.0000   1.0000
     1.0000   0.3450   0.0000   0.0000   0.0000   0.0000   0.0000   0.0000
     0.0000   0.0000   0.0000   0.0000   0.0000   0.0000   0.0000   0.0000
     0.0000   0.0000   0.0000   0.0000   0.0000   0.0000   0.0000   0.0000
     0.0000   0.0000   0.0000   0.0000   0.0000   0.0000   0.0000   0.0000
     0.0000   0.0000   0.0000   0.0000   0.0000   0.0000   0.0000   0.0000
     0.0000   0.0000   0.0000   0.0000   0.0000   0.0000   0.0000   0.0000
     0.0000   0.0000   0.0000   0.0000   0.0000   0.0000   0.0000   0.0000
     0.0000   0.0000

[...]

          k =-0.5000-0.5000-0.5000 (269968 PWs)   bands (ev):

[...]

 ------ SPIN DOWN ----------

[...]

          k =-0.2500 0.0000 0.2500 (269929 PWs)   bands (ev):

[...]

          k = 0.2500-0.2500-0.5000 (269988 PWs)   bands (ev):

   -77.1443 -43.3135 -43.3134 -43.2995  -7.4396  -7.3672  -7.1916  -7.1879
    -7.1285  -7.0871  -6.9967  -6.8763  -6.8157  -6.8126  -6.7749  -6.7560
    -6.7468  -6.7378  -6.6727  -6.6615  -6.6527  -6.6487  -6.6286  -6.6067
    -6.6018  -6.5708  -6.5616  -6.5486  -6.5329  -6.5179  -6.5147  -6.5085
    -6.3052  -6.2021  -6.1895  -0.8843  -0.8680  -0.8679  -0.8618  -0.8466
    -0.8387  -0.8298  -0.8250  -0.8209  -0.8177  -0.8119  -0.8063  -0.8043
    -0.8028  -0.8006  -0.7961  -0.7952  -0.7918  -0.7894  -0.7872  -0.7818
    -0.7780  -0.7745  -0.7710  -0.7677  -0.7643  -0.7630  -0.7592  -0.7538
    -0.7516  -0.7475  -0.7444  -0.7421  -0.7348  -0.7333  -0.7313  -0.7287
    -0.7252  -0.7217  -0.7181  -0.7128  -0.7083  -0.6983  -0.6948  -0.6896
    -0.6882  -0.6798  -0.6740  -0.6645  -0.6583  -0.6540  -0.6487  -0.6434
    -0.6366  -0.6331  -0.6317  -0.6219  -0.6203  -0.6099  -0.6068  -0.6040
    -0.5979  -0.5872  -0.5843  -0.5791  -0.5776  -0.5732  -0.5625  -0.5603
    -0.5572  -0.5390  -0.5331  -0.5294  -0.5160  -0.5057  -0.4972  -0.4921
    -0.4863  -0.4823  -0.4771  -0.4759  -0.4662  -0.4621  -0.4521  -0.4478
    -0.4386  -0.4351  -0.4279  -0.4247  -0.4185  -0.4132  -0.4042  -0.4018
    -0.3985  -0.3964  -0.3908  -0.3879  -0.3860  -0.3831  -0.3811  -0.3771
    -0.3761  -0.3730  -0.3708  -0.3679  -0.3671  -0.3652  -0.3610  -0.3567
    -0.3531  -0.3517  -0.3411  -0.3390  -0.3342  -0.3265  -0.3219  -0.3188
    -0.3091  -0.3001  -0.2950  -0.2916  -0.2846  -0.2837  -0.2818  -0.2780
    -0.2694  -0.2661  -0.2601  -0.2588  -0.2557  -0.2509  -0.2426  -0.2353
    -0.2239  -0.2079  -0.1944  -0.1822  -0.1739  -0.1651  -0.1562  -0.1538
    -0.1408  -0.1351  -0.1238  -0.1203  -0.1158  -0.1057  -0.0929  -0.0850
    -0.0740  -0.0712  -0.0604  -0.0385  -0.0314  -0.0211   0.5316   0.6129
     0.7460   0.7745   0.8145   0.8296   0.8445   0.8759   0.9267   0.9346
     0.9531   0.9749   0.9949   1.0145   1.0575   1.0875   1.1760   1.3705
     1.4310   1.5094   1.5441   1.5828   1.6143   1.7009   1.8375   2.1447
     2.4862   2.5420   2.5459   2.5679   2.5815   2.5901   2.6440   2.7109
     2.7424   2.7686   2.8093   2.8237   2.8927   2.9643   2.9906   3.0469
     3.2259   3.2821   3.3419   3.3593   3.4205   3.4342   3.4484   3.4691
     3.4884   3.5086   3.5151   3.5595   3.5986   3.6176   3.6254   3.6393
     3.6475   3.6513   3.6597   3.7172   3.7398   3.7469   3.7846   3.8005
     3.8232   3.9085   3.9396   3.9991   4.0137   4.0770   4.0874   4.1549
     4.1618   4.1812   4.2149   4.2977   4.3441   4.3719   4.3879   4.4123
     4.4450   4.6013   4.7170   4.7708   4.7981   4.8438   4.8686   4.9177
     4.9758   5.0220   5.0398   6.8737   7.7248   7.7397   8.2893   8.3890
     8.6880   8.7596   8.8267   8.9413   9.0477   9.1428   9.1973   9.2900
     9.3274   9.3442   9.4304   9.5511   9.5628   9.5844   9.6015   9.6164
     9.6683   9.7214   9.7368   9.7927   9.8087   9.8509   9.8691   9.9128
     9.9943  10.0181  10.0785  10.0994  10.1711  10.1986  10.2483  10.3042
    10.3235  10.4421  10.4892  10.6524  10.7045  10.7319  10.8143  10.8519
    10.8890  10.9386  11.0475  11.1690  11.1927  11.2384  11.3599  11.4029
    11.4344  11.4725  11.4745  11.5139  11.5472  11.5795  11.6046  11.6212
    11.6287  11.6426

     occupation numbers
     1.0000   1.0000   1.0000   1.0000   1.0000   1.0000   1.0000   1.0000
     1.0000   1.0000   1.0000   1.0000   1.0000   1.0000   1.0000   1.0000
     1.0000   1.0000   1.0000   1.0000   1.0000   1.0000   1.0000   1.0000
     1.0000   1.0000   1.0000   1.0000   1.0000   1.0000   1.0000   1.0000
     1.0000   1.0000   1.0000   1.0000   1.0000   1.0000   1.0000   1.0000
     1.0000   1.0000   1.0000   1.0000   1.0000   1.0000   1.0000   1.0000
     1.0000   1.0000   1.0000   1.0000   1.0000   1.0000   1.0000   1.0000
     1.0000   1.0000   1.0000   1.0000   1.0000   1.0000   1.0000   1.0000
     1.0000   1.0000   1.0000   1.0000   1.0000   1.0000   1.0000   1.0000
     1.0000   1.0000   1.0000   1.0000   1.0000   1.0000   1.0000   1.0000
     1.0000   1.0000   1.0000   1.0000   1.0000   1.0000   1.0000   1.0000
     1.0000   1.0000   1.0000   1.0000   1.0000   1.0000   1.0000   1.0000
     1.0000   1.0000   1.0000   1.0000   1.0000   1.0000   1.0000   1.0000
     1.0000   1.0000   1.0000   1.0000   1.0000   1.0000   1.0000   1.0000
     1.0000   1.0000   1.0000   1.0000   1.0000   1.0000   1.0000   1.0000
     1.0000   1.0000   1.0000   1.0000   1.0000   1.0000   1.0000   1.0000
     1.0000   1.0000   1.0000   1.0000   1.0000   1.0000   1.0000   1.0000
     1.0000   1.0000   1.0000   1.0000   1.0000   1.0000   1.0000   1.0000
     1.0000   1.0000   1.0000   1.0000   1.0000   1.0000   1.0000   1.0000
     1.0000   1.0000   1.0000   1.0000   1.0000   1.0000   1.0000   1.0000
     1.0000   1.0000   1.0000   1.0000   1.0000   1.0000   1.0000   1.0000
     1.0000   1.0000   1.0000   1.0000   1.0000   1.0000   1.0000   1.0000
     1.0000   1.0000   1.0000   1.0000   1.0000   1.0000   1.0000   1.0000
     1.0000   1.0000   1.0000   1.0000   1.0000   1.0000   1.0000   1.0000
     1.0000   1.0000   1.0000   1.0000   1.0000   1.0000   1.0000   1.0000
     1.0000   1.0000   1.0000   1.0000   1.0000   1.0000   1.0000   1.0000
     1.0000   1.0000   1.0000   1.0000   1.0000   1.0000   1.0000   1.0000
     1.0000   1.0000   1.0000   1.0000   1.0000   1.0000   1.0000   1.0000
     1.0000   1.0000   1.0000   1.0000   1.0000   1.0000   1.0000   1.0000
     1.0000   1.0000   1.0000   1.0000   1.0000   1.0000   1.0000   1.0000
     1.0000   1.0000   1.0000   1.0000   1.0000   1.0000   1.0000   1.0000
     1.0000   1.0000   1.0000   1.0000   1.0000   1.0000   1.0000   1.0000
     1.0000   1.0000   1.0000   1.0000   1.0000   1.0000   1.0000   1.0000
     1.0000   1.0000   1.0000   1.0000   1.0000   1.0000   1.0000   1.0000
     1.0000   1.0000   1.0000   1.0000   1.0000   1.0000   1.0000   1.0000
     1.0000   1.0000   1.0000   1.0000   1.0000   0.9977   0.0000   0.0000
     0.0000   0.0000   0.0000   0.0000   0.0000   0.0000   0.0000   0.0000
     0.0000   0.0000   0.0000   0.0000   0.0000   0.0000   0.0000   0.0000
     0.0000   0.0000   0.0000   0.0000   0.0000   0.0000   0.0000   0.0000
     0.0000   0.0000   0.0000   0.0000   0.0000   0.0000   0.0000   0.0000
     0.0000   0.0000   0.0000   0.0000   0.0000   0.0000   0.0000   0.0000
     0.0000   0.0000   0.0000   0.0000   0.0000   0.0000   0.0000   0.0000
     0.0000   0.0000   0.0000   0.0000   0.0000   0.0000   0.0000   0.0000
     0.0000   0.0000

     the Fermi energy is     7.7669 ev

!    total energy              =   -9942.69475016 Ry
     total all-electron energy =   -138654.433728 Ry
     estimated scf accuracy    <          7.1E-10 Ry
     smearing contrib. (-TS)   =      -0.00002342 Ry
     internal energy E=F+TS    =   -9942.69472673 Ry

     The total energy is F=E-TS. E is the sum of the following terms:
     one-electron contribution =   -2893.66038672 Ry
     hartree contribution      =    2014.54384817 Ry
     xc contribution           =   -1650.64659384 Ry
     ewald contribution        =   -2941.96206788 Ry
     one-center paw contrib.   =   -4470.96952647 Ry
      -> PAW hartree energy AE =     123.39499139 Ry
      -> PAW hartree energy PS =    -122.75355654 Ry
      -> PAW xc energy AE      =    -143.21866922 Ry
      -> PAW xc energy PS      =      47.15708606 Ry
      -> total E_H with PAW    =    2015.18528302 Ry
      -> total E_XC with PAW   =   -1746.70817700 Ry

     total magnetization       =     3.01 Bohr mag/cell
     absolute magnetization    =     3.23 Bohr mag/cell

     convergence has been achieved in  19 iterations

     Writing all to output data dir ./out/Fe_vac_qn1_unrlxd.save/

     General routines

     Parallel routines

     PAW routines

   This run was terminated on:   1:16:30   7Jul2024

   JOB DONE.