     Program PWSCF v.7.2 starts on  1Jul2024 at  3:34:24

     Waiting for input...
     Reading input from standard input

     Current dimensions of program PWSCF are:
     Max number of different atomic species (ntypx) = 10
     Max number of k-points (npk) =  40000
     Max angular momentum in pseudopotentials (lmaxx) =  4
     file S.pbe-n-kjpaw_psl.1.0.0.UPF: wavefunction(s)  3S 3P renormalized
     file Zn.pbe-dnl-kjpaw_psl.1.0.0.UPF: wavefunction(s)  4S 3D renormalized
     Found identity + (  0.0000  0.2500  0.2500) symmetry
     This is a supercell, fractional translations are disabled

     K-points division:     npool     =      10
     R & G space division:  proc/nbgrp/npool/nimage =     112
     Subspace diagonalization in iterative solution of the eigenvalue problem:
     one sub-group per band group will be used

     Using Slab Decomposition

     bravais-lattice index     =            1
     lattice parameter (alat)  =      20.5686  a.u.
     unit-cell volume          =    8701.8437 (a.u.)^3
     number of atoms/cell      =           64
     number of atomic types    =            2
     number of electrons       =       576.00
     number of Kohn-Sham states=          345
     kinetic-energy cutoff     =     105.0000  Ry
     charge density cutoff     =     420.0000  Ry
     scf convergence threshold =      1.0E-06
     mixing beta               =       0.7000
     number of iterations used =            8  plain     mixing
     Exchange-correlation= SLA  PW   PBX  PBC
                           (   1   4   3   4   0   0   0)
     Hubbard projectors: ortho-atomic
     Hubbard parameters of DFT+U (Dudarev formulation) in eV:
     U(S-3p) =  1.0000
     U(Zn-3d) =  0.0000

     Internal variables: lda_plus_u = T, lda_plus_u_kind = 0

     celldm(1)=  20.568554  celldm(2)=   0.000000  celldm(3)=   0.000000
     celldm(4)=   0.000000  celldm(5)=   0.000000  celldm(6)=   0.000000

     crystal axes: (cart. coord. in units of alat)
               a(1) = (   1.000000   0.000000   0.000000 )
               a(2) = (   0.000000   1.000000   0.000000 )
               a(3) = (   0.000000   0.000000   1.000000 )

     reciprocal axes: (cart. coord. in units 2 pi/alat)
               b(1) = (  1.000000  0.000000  0.000000 )
               b(2) = (  0.000000  1.000000  0.000000 )
               b(3) = (  0.000000  0.000000  1.000000 )

     PseudoPot. # 1 for S  read from file:
     /arf/home/amuhaymin/pseudo/S.pbe-n-kjpaw_psl.1.0.0.UPF
     MD5 check sum: fb45dfebcf3e72a4e1bd4a866ec2e262
     Pseudo is Projector augmented-wave + core cor, Zval =  6.0
     Generated using &quot;atomic&quot; code by A. Dal Corso  v.6.3
     Shape of augmentation charge: PSQ
     Using radial grid of 1151 points,  6 beta functions with:
                l(1) =   0
                l(2) =   0
                l(3) =   1
                l(4) =   1
                l(5) =   2
                l(6) =   2
     Q(r) pseudized with 0 coefficients

     PseudoPot. # 2 for Zn read from file:
     /arf/home/amuhaymin/pseudo/Zn.pbe-dnl-kjpaw_psl.1.0.0.UPF
     MD5 check sum: c608214d9520ac179f507641260889e3
     Pseudo is Projector augmented-wave + core cor, Zval = 12.0
     Generated using &quot;atomic&quot; code by A. Dal Corso  v.6.2.2
     Shape of augmentation charge: PSQ
     Using radial grid of 1201 points,  6 beta functions with:
                l(1) =   0
                l(2) =   0
                l(3) =   1
                l(4) =   1
                l(5) =   2
                l(6) =   2
     Q(r) pseudized with 0 coefficients

     atomic species   valence    mass     pseudopotential
        S              6.00    32.06500     S ( 1.00)
        Zn            12.00    65.38000     Zn( 1.00)

     24 Sym. Ops. (no inversion) found

                                    s                        frac. trans.

      isym =  1     identity

 cryst.   s( 1) = (     1          0          0      )
                  (     0          1          0      )
                  (     0          0          1      )

 cart.    s( 1) = (  1.0000000  0.0000000  0.0000000 )
                  (  0.0000000  1.0000000  0.0000000 )
                  (  0.0000000  0.0000000  1.0000000 )

      isym =  2     180 deg rotation - cart. axis [0,0,1]

[...]

 cryst.   s( 9) = (     0          1          0      )
                  (     0          0          1      )
                  (     1          0          0      )

 cart.    s( 9) = (  0.0000000  0.0000000  1.0000000 )
                  (  1.0000000  0.0000000  0.0000000 )
                  (  0.0000000  1.0000000  0.0000000 )

[...]

 cryst.   s(10) = (     0         -1          0      )
                  (     0          0         -1      )
                  (     1          0          0      )

 cart.    s(10) = (  0.0000000  0.0000000  1.0000000 )
                  ( -1.0000000  0.0000000  0.0000000 )
                  (  0.0000000 -1.0000000  0.0000000 )

[...]

      isym = 12     120 deg rotation - cart. axis [-1,-1,1]

[...]

      isym = 13     inv. 180 deg rotation - cart. axis [1,1,0]

[...]

      isym = 24     inv.  90 deg rotation - cart. axis [1,0,0]

 cryst.   s(24) = (    -1          0          0      )
                  (     0          0         -1      )
                  (     0          1          0      )

 cart.    s(24) = ( -1.0000000  0.0000000  0.0000000 )
                  (  0.0000000  0.0000000  1.0000000 )
                  (  0.0000000 -1.0000000  0.0000000 )

     point group T_d (-43m)
     there are  5 classes
     the character table:

       E     8C3   3C2   6S4   6s_d
A_1    1.00  1.00  1.00  1.00  1.00
A_2    1.00  1.00  1.00 -1.00 -1.00
E      2.00 -1.00  2.00  0.00  0.00
T_1    3.00  0.00 -1.00  1.00 -1.00
T_2    3.00  0.00 -1.00 -1.00  1.00

     the symmetry operations in each class and the name of the first element:

     E        1
          identity
     8C3      5    7    8    6   12    9   10   11
          120 deg rotation - cart. axis [-1,-1,-1]
     3C2      2    3    4
          180 deg rotation - cart. axis [0,0,1]
     6S4     15   16   20   19   23   24
          inv.  90 deg rotation - cart. axis [0,0,-1]
     6s_d    13   14   17   18   21   22
          inv. 180 deg rotation - cart. axis [1,1,0]

   Cartesian axes

     site n.     atom                  positions (alat units)
         1           Zn  tau(   1) = (   0.0000000   0.0000000   0.0000000  )
         2           Zn  tau(   2) = (   0.0000000   0.2500000   0.2500000  )
         3           Zn  tau(   3) = (   0.2500000   0.0000000   0.2500000  )
         4           Zn  tau(   4) = (   0.2500000   0.2500000   0.0000000  )
         5           S   tau(   5) = (   0.1250000   0.3750000   0.3750000  )
         6           S   tau(   6) = (   0.1250000   0.1250000   0.1250000  )
         7           S   tau(   7) = (   0.3750000   0.3750000   0.1250000  )
         8           S   tau(   8) = (   0.3750000   0.1250000   0.3750000  )
         9           Zn  tau(   9) = (   0.0000000   0.0000000   0.5000000  )
        10           Zn  tau(  10) = (   0.0000000   0.2500000   0.7500000  )
        11           Zn  tau(  11) = (   0.2500000   0.0000000   0.7500000  )
        12           Zn  tau(  12) = (   0.2500000   0.2500000   0.5000000  )
        13           S   tau(  13) = (   0.1250000   0.3750000   0.8750000  )
        14           S   tau(  14) = (   0.1250000   0.1250000   0.6250000  )
        15           S   tau(  15) = (   0.3750000   0.3750000   0.6250000  )
        16           S   tau(  16) = (   0.3750000   0.1250000   0.8750000  )
        17           Zn  tau(  17) = (   0.0000000   0.5000000   0.0000000  )
        18           Zn  tau(  18) = (   0.0000000   0.7500000   0.2500000  )
        19           Zn  tau(  19) = (   0.2500000   0.5000000   0.2500000  )
        20           Zn  tau(  20) = (   0.2500000   0.7500000   0.0000000  )
        21           S   tau(  21) = (   0.1250000   0.8750000   0.3750000  )
        22           S   tau(  22) = (   0.1250000   0.6250000   0.1250000  )
        23           S   tau(  23) = (   0.3750000   0.8750000   0.1250000  )
        24           S   tau(  24) = (   0.3750000   0.6250000   0.3750000  )
        25           Zn  tau(  25) = (   0.0000000   0.5000000   0.5000000  )
        26           Zn  tau(  26) = (   0.0000000   0.7500000   0.7500000  )
        27           Zn  tau(  27) = (   0.2500000   0.5000000   0.7500000  )
        28           Zn  tau(  28) = (   0.2500000   0.7500000   0.5000000  )
        29           S   tau(  29) = (   0.1250000   0.8750000   0.8750000  )
        30           S   tau(  30) = (   0.1250000   0.6250000   0.6250000  )
        31           S   tau(  31) = (   0.3750000   0.8750000   0.6250000  )
        32           S   tau(  32) = (   0.3750000   0.6250000   0.8750000  )
        33           Zn  tau(  33) = (   0.5000000   0.0000000   0.0000000  )
        34           Zn  tau(  34) = (   0.5000000   0.2500000   0.2500000  )
        35           Zn  tau(  35) = (   0.7500000   0.0000000   0.2500000  )
        36           Zn  tau(  36) = (   0.7500000   0.2500000   0.0000000  )
        37           S   tau(  37) = (   0.6250000   0.3750000   0.3750000  )
        38           S   tau(  38) = (   0.6250000   0.1250000   0.1250000  )
        39           S   tau(  39) = (   0.8750000   0.3750000   0.1250000  )
        40           S   tau(  40) = (   0.8750000   0.1250000   0.3750000  )
        41           Zn  tau(  41) = (   0.5000000   0.0000000   0.5000000  )
        42           Zn  tau(  42) = (   0.5000000   0.2500000   0.7500000  )
        43           Zn  tau(  43) = (   0.7500000   0.0000000   0.7500000  )
        44           Zn  tau(  44) = (   0.7500000   0.2500000   0.5000000  )
        45           S   tau(  45) = (   0.6250000   0.3750000   0.8750000  )
        46           S   tau(  46) = (   0.6250000   0.1250000   0.6250000  )
        47           S   tau(  47) = (   0.8750000   0.3750000   0.6250000  )
        48           S   tau(  48) = (   0.8750000   0.1250000   0.8750000  )
        49           Zn  tau(  49) = (   0.5000000   0.5000000   0.0000000  )
        50           Zn  tau(  50) = (   0.5000000   0.7500000   0.2500000  )
        51           Zn  tau(  51) = (   0.7500000   0.5000000   0.2500000  )
        52           Zn  tau(  52) = (   0.7500000   0.7500000   0.0000000  )
        53           S   tau(  53) = (   0.6250000   0.8750000   0.3750000  )
        54           S   tau(  54) = (   0.6250000   0.6250000   0.1250000  )
        55           S   tau(  55) = (   0.8750000   0.8750000   0.1250000  )
        56           S   tau(  56) = (   0.8750000   0.6250000   0.3750000  )
        57           Zn  tau(  57) = (   0.5000000   0.5000000   0.5000000  )
        58           Zn  tau(  58) = (   0.5000000   0.7500000   0.7500000  )
        59           Zn  tau(  59) = (   0.7500000   0.5000000   0.7500000  )
        60           Zn  tau(  60) = (   0.7500000   0.7500000   0.5000000  )
        61           S   tau(  61) = (   0.6250000   0.8750000   0.8750000  )
        62           S   tau(  62) = (   0.6250000   0.6250000   0.6250000  )
[...]
      -0.000 -0.000  0.994  0.000 -0.000
       0.000  0.000  0.000  0.997  0.000
      -0.000  0.000 -0.000  0.000  0.994
     ------------------------ ATOM   60 ------------------------
     Tr[ns( 60)] =   9.95437
     eigenvalues:
       0.994  0.994  0.994  0.997  0.997
     eigenvectors (columns):
       0.000 -0.000 -0.000 -0.000  1.000
      -0.707 -0.096 -0.701  0.000 -0.000
       0.707 -0.096 -0.701 -0.000 -0.000
      -0.000  0.000  0.000 -1.000 -0.000
      -0.000  0.991 -0.136  0.000  0.000
     occupation matrix ns (before diag.):
       0.997 -0.000 -0.000  0.000  0.000
      -0.000  0.994  0.000 -0.000  0.000
      -0.000  0.000  0.994  0.000  0.000
       0.000 -0.000  0.000  0.997 -0.000
       0.000  0.000  0.000 -0.000  0.994
     ------------------------ ATOM   61 ------------------------
     Tr[ns( 61)] =   4.55395
     eigenvalues:
       0.759  0.759  0.759
     eigenvectors (columns):
       0.707  0.241 -0.665
       0.000 -0.940 -0.341
       0.707 -0.241  0.665
     occupation matrix ns (before diag.):
       0.759  0.000 -0.000
       0.000  0.759 -0.000
      -0.000 -0.000  0.759
     ------------------------ ATOM   62 ------------------------
     Tr[ns( 62)] =   4.55396
     eigenvalues:
       0.759  0.759  0.759
     eigenvectors (columns):
       0.772 -0.267 -0.577
       0.617  0.535  0.577
       0.154 -0.802  0.577
     occupation matrix ns (before diag.):
       0.759 -0.000 -0.000
      -0.000  0.759  0.000
      -0.000  0.000  0.759
     ------------------------ ATOM   63 ------------------------
     Tr[ns( 63)] =   4.55395
     eigenvalues:
       0.759  0.759  0.759
     eigenvectors (columns):
       0.000  0.940  0.341
       0.707 -0.241  0.665
      -0.707 -0.241  0.665
     occupation matrix ns (before diag.):
       0.759  0.000  0.000
       0.000  0.759  0.000
       0.000  0.000  0.759
     ------------------------ ATOM   64 ------------------------
     Tr[ns( 64)] =   4.55395
     eigenvalues:
       0.759  0.759  0.759
     eigenvectors (columns):
       0.707  0.241 -0.665
       0.707 -0.241  0.665
       0.000 -0.940 -0.341
     occupation matrix ns (before diag.):
       0.759 -0.000  0.000
      -0.000  0.759 -0.000
       0.000 -0.000  0.759

     Number of occupied Hubbard levels =  464.2661

     HUBBARD ENERGY =    1.2907  (Ry)

     End of self-consistent calculation

          k = 0.0000 0.0000 0.0000 (158355 PWs)   bands (ev):

    -7.4016  -6.8564  -6.8563  -6.8563  -6.8563  -6.8563  -6.8563  -6.5292
    -6.5292  -6.5292  -6.5292  -6.5291  -6.5291  -6.5291  -6.5291  -6.5291
    -6.5291  -6.5291  -6.5291  -6.5047  -6.5047  -6.5047  -6.5047  -6.2013
    -6.2013  -6.2013  -6.1957  -6.1957  -6.1957  -6.1956  -6.1956  -6.1956
    -0.7850  -0.7850  -0.7850  -0.7850  -0.7850  -0.7850  -0.7720  -0.7720
    -0.7720  -0.7347  -0.7347  -0.7347  -0.6205  -0.6205  -0.6205  -0.6205
    -0.6205  -0.6205  -0.6205  -0.6205  -0.6126  -0.6126  -0.6126  -0.6126
    -0.6126  -0.6125  -0.6125  -0.6125  -0.6125  -0.6125  -0.6125  -0.6125
    -0.6051  -0.6051  -0.6051  -0.6051  -0.6051  -0.6051  -0.5902  -0.5902
    -0.5902  -0.5902  -0.5902  -0.5902  -0.5902  -0.5902  -0.5902  -0.5901
    -0.5901  -0.5901  -0.5803  -0.5803  -0.5803  -0.5802  -0.5802  -0.5802
    -0.5802  -0.5802  -0.5802  -0.5802  -0.5802  -0.5802  -0.4591  -0.4591
    -0.4591  -0.4590  -0.4590  -0.4590  -0.4590  -0.4590  -0.4590  -0.4590
    -0.4590  -0.4590  -0.4517  -0.4517  -0.4517  -0.4516  -0.4516  -0.4516
    -0.3952  -0.3952  -0.3952  -0.3952  -0.3952  -0.3952  -0.3037  -0.3037
    -0.3037  -0.3037  -0.3037  -0.3036  -0.2748  -0.2748  -0.2748  -0.2748
    -0.2748  -0.2747  -0.2731  -0.2731  -0.2731  -0.2731  -0.2731  -0.2731
    -0.2523  -0.2523  -0.2522  -0.2522  -0.2522  -0.2522  -0.2522  -0.2522
    -0.2522  -0.2522  -0.2522  -0.2521  -0.2382  -0.2382  -0.2092  -0.2092
    -0.2092  -0.2092  -0.2092  -0.2092  -0.2092  -0.2092  -0.2026  -0.2026
    -0.2025  -0.2025  -0.2025  -0.2025  -0.1810  -0.1810  -0.1810  -0.1810
    -0.1810  -0.1810  -0.1810  -0.1810  -0.1810  -0.1810  -0.1810  -0.1809
    -0.1668  -0.1668  -0.1668  -0.0400  -0.0400  -0.0400  -0.0400  -0.0256
    -0.0256  -0.0256   0.1463   0.1463   0.1463   0.1463   0.1463   0.1463
     0.2579   0.2579   0.2579   0.2579   0.9278   0.9278   0.9278   0.9278
     0.9278   0.9278   0.9674   0.9674   0.9674   1.5600   1.5601   1.5601
     1.5601   1.5601   1.5601   1.5601   1.5601   1.5601   1.5601   1.5601
     1.5601   2.7595   2.7595   2.7595   2.7595   2.7595   2.7595   2.7735
     2.7735   2.7735   2.7735   2.7735   2.7735   2.8963   2.8963   2.8963
     2.8963   2.8964   2.8964   2.9782   2.9782   2.9782   2.9783   2.9783
     2.9783   2.9783   2.9783   2.9783   2.9783   2.9783   2.9783   3.2414
     3.2414   3.2414   3.2414   3.2414   3.2414   4.1948   4.1948   4.1948
     4.1948   4.1948   4.1948   4.1948   4.1948   4.1948   4.1949   4.1949
     4.1949   4.5099   4.5099   4.5099   4.5099   4.5099   4.5099   4.5099
     4.5099   4.5099   4.5099   4.5099   4.5099   4.5458   4.5458   4.5458
     4.5458   4.5458   4.5458   4.5458   4.5458   5.3729   5.3729   5.3729
     7.5740   8.7992   8.7992   8.7992   8.7992   8.9974   8.9974   8.9974
     9.5476   9.5476   9.5476   9.9326   9.9327   9.9327   9.9327   9.9327
     9.9327  10.0992  10.0992  10.0992  10.0992  10.0992  10.0992  10.2789
    10.2789  10.2789  10.2789  10.2789  10.2789  10.2789  10.2789  10.2789
    10.2789  10.2790  10.2790  11.1959  11.1959  11.1959  11.1959  11.1959
    11.1960  11.4006  11.4006  11.4006  11.4006  11.4006  11.4006  12.1376
    12.1389  12.1400  12.1410  12.1411  12.1411  12.1411  12.1411  12.1411
    12.1411

     occupation numbers
     1.0000   1.0000   1.0000   1.0000   1.0000   1.0000   1.0000   1.0000
     1.0000   1.0000   1.0000   1.0000   1.0000   1.0000   1.0000   1.0000
     1.0000   1.0000   1.0000   1.0000   1.0000   1.0000   1.0000   1.0000
     1.0000   1.0000   1.0000   1.0000   1.0000   1.0000   1.0000   1.0000
     1.0000   1.0000   1.0000   1.0000   1.0000   1.0000   1.0000   1.0000
     1.0000   1.0000   1.0000   1.0000   1.0000   1.0000   1.0000   1.0000
     1.0000   1.0000   1.0000   1.0000   1.0000   1.0000   1.0000   1.0000
     1.0000   1.0000   1.0000   1.0000   1.0000   1.0000   1.0000   1.0000
     1.0000   1.0000   1.0000   1.0000   1.0000   1.0000   1.0000   1.0000
     1.0000   1.0000   1.0000   1.0000   1.0000   1.0000   1.0000   1.0000
     1.0000   1.0000   1.0000   1.0000   1.0000   1.0000   1.0000   1.0000
     1.0000   1.0000   1.0000   1.0000   1.0000   1.0000   1.0000   1.0000
     1.0000   1.0000   1.0000   1.0000   1.0000   1.0000   1.0000   1.0000
     1.0000   1.0000   1.0000   1.0000   1.0000   1.0000   1.0000   1.0000
     1.0000   1.0000   1.0000   1.0000   1.0000   1.0000   1.0000   1.0000
     1.0000   1.0000   1.0000   1.0000   1.0000   1.0000   1.0000   1.0000
     1.0000   1.0000   1.0000   1.0000   1.0000   1.0000   1.0000   1.0000
     1.0000   1.0000   1.0000   1.0000   1.0000   1.0000   1.0000   1.0000
     1.0000   1.0000   1.0000   1.0000   1.0000   1.0000   1.0000   1.0000
     1.0000   1.0000   1.0000   1.0000   1.0000   1.0000   1.0000   1.0000
     1.0000   1.0000   1.0000   1.0000   1.0000   1.0000   1.0000   1.0000
     1.0000   1.0000   1.0000   1.0000   1.0000   1.0000   1.0000   1.0000
     1.0000   1.0000   1.0000   1.0000   1.0000   1.0000   1.0000   1.0000
     1.0000   1.0000   1.0000   1.0000   1.0000   1.0000   1.0000   1.0000
     1.0000   1.0000   1.0000   1.0000   1.0000   1.0000   1.0000   1.0000
     1.0000   1.0000   1.0000   1.0000   1.0000   1.0000   1.0000   1.0000
     1.0000   1.0000   1.0000   1.0000   1.0000   1.0000   1.0000   1.0000
     1.0000   1.0000   1.0000   1.0000   1.0000   1.0000   1.0000   1.0000
     1.0000   1.0000   1.0000   1.0000   1.0000   1.0000   1.0000   1.0000
     1.0000   1.0000   1.0000   1.0000   1.0000   1.0000   1.0000   1.0000
     1.0000   1.0000   1.0000   1.0000   1.0000   1.0000   1.0000   1.0000
     1.0000   1.0000   1.0000   1.0000   1.0000   1.0000   1.0000   1.0000
     1.0000   1.0000   1.0000   1.0000   1.0000   1.0000   1.0000   1.0000
     1.0000   1.0000   1.0000   1.0000   1.0000   1.0000   1.0000   1.0000
     1.0000   1.0000   1.0000   1.0000   1.0000   1.0000   1.0000   1.0000
     1.0000   1.0000   1.0000   1.0000   1.0000   1.0000   1.0000   1.0000
     0.0000   0.0000   0.0000   0.0000   0.0000   0.0000   0.0000   0.0000
     0.0000   0.0000   0.0000   0.0000   0.0000   0.0000   0.0000   0.0000
     0.0000   0.0000   0.0000   0.0000   0.0000   0.0000   0.0000   0.0000
     0.0000   0.0000   0.0000   0.0000   0.0000   0.0000   0.0000   0.0000
     0.0000   0.0000   0.0000   0.0000   0.0000   0.0000   0.0000   0.0000
     0.0000   0.0000   0.0000   0.0000   0.0000   0.0000   0.0000   0.0000
     0.0000   0.0000   0.0000   0.0000   0.0000   0.0000   0.0000   0.0000
     0.0000

[...]

          k = 0.2500-0.5000-0.5000 (158052 PWs)   bands (ev):

[...]

          k =-0.5000-0.5000-0.5000 (158408 PWs)   bands (ev):

    -6.9933  -6.9932  -6.9932  -6.9932  -6.9932  -6.9932  -6.9932  -6.9932
    -6.3643  -6.3643  -6.3643  -6.3642  -6.3642  -6.3642  -6.3642  -6.3642
    -6.3642  -6.3642  -6.3642  -6.3642  -6.3642  -6.3642  -6.3642  -6.3642
    -6.3641  -6.3641  -6.3641  -6.3641  -6.3641  -6.3641  -6.3641  -6.3641
    -0.6885  -0.6885  -0.6885  -0.6884  -0.6884  -0.6884  -0.6884  -0.6884
    -0.6687  -0.6687  -0.6687  -0.6685  -0.6685  -0.6685  -0.6685  -0.6685
    -0.6685  -0.6685  -0.6685  -0.6685  -0.6685  -0.6684  -0.6684  -0.6684
    -0.6552  -0.6552  -0.6552  -0.6552  -0.6552  -0.6550  -0.6550  -0.6550
    -0.6550  -0.6550  -0.6550  -0.6550  -0.6550  -0.6550  -0.6550  -0.6550
    -0.6550  -0.6550  -0.6550  -0.6550  -0.6550  -0.6550  -0.6550  -0.6550
    -0.5112  -0.5112  -0.5112  -0.5110  -0.5110  -0.5110  -0.5110  -0.5109
    -0.5109  -0.5109  -0.5109  -0.5109  -0.5109  -0.5109  -0.5109  -0.5109
    -0.5109  -0.5109  -0.5109  -0.5109  -0.5109  -0.5108  -0.5108  -0.5108
    -0.3966  -0.3966  -0.3966  -0.3965  -0.3965  -0.3964  -0.3964  -0.3964
    -0.3964  -0.3964  -0.3964  -0.3964  -0.3964  -0.3964  -0.3964  -0.3964
    -0.3964  -0.3964  -0.3964  -0.3963  -0.3963  -0.3963  -0.3963  -0.3963
    -0.2370  -0.2370  -0.2367  -0.2367  -0.2367  -0.2367  -0.2367  -0.2367
    -0.2367  -0.2367  -0.2367  -0.2367  -0.2367  -0.2367  -0.2366  -0.2366
    -0.1972  -0.1972  -0.1969  -0.1969  -0.1969  -0.1969  -0.1968  -0.1968
    -0.1968  -0.1968  -0.1968  -0.1968  -0.1968  -0.1968  -0.1968  -0.1968
    -0.1968  -0.1968  -0.1968  -0.1968  -0.1968  -0.1968  -0.1967  -0.1967
    -0.0812  -0.0812  -0.0812  -0.0811  -0.0811  -0.0810  -0.0810  -0.0810
    -0.0810  -0.0810  -0.0810  -0.0810  -0.0810  -0.0809  -0.0809  -0.0809
    -0.0809  -0.0809  -0.0809  -0.0809  -0.0809  -0.0809  -0.0809  -0.0809
     1.0515   1.0516   1.0516   1.0516   1.0516   1.0516   1.0516   1.0516
     1.0516   1.0516   1.0517   1.0517   1.0517   1.0517   1.0517   1.0517
     1.0517   1.0517   1.0517   1.0517   1.0517   1.0517   1.0517   1.0517
     2.6492   2.6492   2.6492   2.6493   2.6493   2.6493   2.6493   2.6493
     3.0847   3.0847   3.0847   3.0847   3.0847   3.0848   3.0848   3.0848
     3.0848   3.0848   3.0848   3.0848   3.0848   3.0848   3.0848   3.0848
     3.0848   3.0848   3.0848   3.0848   3.0848   3.0848   3.0848   3.0848
     3.8467   3.8467   3.8467   3.8467   3.8467   3.8467   3.8467   3.8467
     3.8467   3.8467   3.8467   3.8467   3.8467   3.8467   3.8468   3.8468
     3.8468   3.8468   3.8468   3.8468   3.8468   3.8468   3.8468   3.8468
     4.9272   4.9272   4.9272   4.9273   4.9273   4.9273   4.9273   4.9273
     4.9273   4.9273   4.9273   4.9273   4.9273   4.9273   4.9273   4.9273
     8.9354   8.9354   8.9354   8.9354   8.9354   8.9354   8.9354   8.9354
     9.8347   9.8348   9.8348   9.8348   9.8348   9.8348   9.8348   9.8348
     9.8348   9.8348   9.8348   9.8348   9.8348   9.8348   9.8348   9.8348
     9.8348   9.8348   9.8348   9.8348   9.8348   9.8348   9.8348   9.8348
    11.4208  11.4209  11.4209  11.4209  11.4209  11.4209  11.4209  11.4209
    11.4209  11.4209  11.4209  11.4209  11.4209  11.4209  11.4209  11.4209
    11.4209  11.4209  11.4209  11.4209  11.4209  11.4209  11.4209  11.4209
    12.3872

     occupation numbers
     1.0000   1.0000   1.0000   1.0000   1.0000   1.0000   1.0000   1.0000
     1.0000   1.0000   1.0000   1.0000   1.0000   1.0000   1.0000   1.0000
     1.0000   1.0000   1.0000   1.0000   1.0000   1.0000   1.0000   1.0000
     1.0000   1.0000   1.0000   1.0000   1.0000   1.0000   1.0000   1.0000
     1.0000   1.0000   1.0000   1.0000   1.0000   1.0000   1.0000   1.0000
     1.0000   1.0000   1.0000   1.0000   1.0000   1.0000   1.0000   1.0000
     1.0000   1.0000   1.0000   1.0000   1.0000   1.0000   1.0000   1.0000
     1.0000   1.0000   1.0000   1.0000   1.0000   1.0000   1.0000   1.0000
     1.0000   1.0000   1.0000   1.0000   1.0000   1.0000   1.0000   1.0000
     1.0000   1.0000   1.0000   1.0000   1.0000   1.0000   1.0000   1.0000
     1.0000   1.0000   1.0000   1.0000   1.0000   1.0000   1.0000   1.0000
     1.0000   1.0000   1.0000   1.0000   1.0000   1.0000   1.0000   1.0000
     1.0000   1.0000   1.0000   1.0000   1.0000   1.0000   1.0000   1.0000
     1.0000   1.0000   1.0000   1.0000   1.0000   1.0000   1.0000   1.0000
     1.0000   1.0000   1.0000   1.0000   1.0000   1.0000   1.0000   1.0000
     1.0000   1.0000   1.0000   1.0000   1.0000   1.0000   1.0000   1.0000
     1.0000   1.0000   1.0000   1.0000   1.0000   1.0000   1.0000   1.0000
     1.0000   1.0000   1.0000   1.0000   1.0000   1.0000   1.0000   1.0000
     1.0000   1.0000   1.0000   1.0000   1.0000   1.0000   1.0000   1.0000
     1.0000   1.0000   1.0000   1.0000   1.0000   1.0000   1.0000   1.0000
     1.0000   1.0000   1.0000   1.0000   1.0000   1.0000   1.0000   1.0000
     1.0000   1.0000   1.0000   1.0000   1.0000   1.0000   1.0000   1.0000
     1.0000   1.0000   1.0000   1.0000   1.0000   1.0000   1.0000   1.0000
     1.0000   1.0000   1.0000   1.0000   1.0000   1.0000   1.0000   1.0000
     1.0000   1.0000   1.0000   1.0000   1.0000   1.0000   1.0000   1.0000
     1.0000   1.0000   1.0000   1.0000   1.0000   1.0000   1.0000   1.0000
     1.0000   1.0000   1.0000   1.0000   1.0000   1.0000   1.0000   1.0000
     1.0000   1.0000   1.0000   1.0000   1.0000   1.0000   1.0000   1.0000
     1.0000   1.0000   1.0000   1.0000   1.0000   1.0000   1.0000   1.0000
     1.0000   1.0000   1.0000   1.0000   1.0000   1.0000   1.0000   1.0000
     1.0000   1.0000   1.0000   1.0000   1.0000   1.0000   1.0000   1.0000
     1.0000   1.0000   1.0000   1.0000   1.0000   1.0000   1.0000   1.0000
     1.0000   1.0000   1.0000   1.0000   1.0000   1.0000   1.0000   1.0000
     1.0000   1.0000   1.0000   1.0000   1.0000   1.0000   1.0000   1.0000
     1.0000   1.0000   1.0000   1.0000   1.0000   1.0000   1.0000   1.0000
     1.0000   1.0000   1.0000   1.0000   1.0000   1.0000   1.0000   1.0000
     0.0000   0.0000   0.0000   0.0000   0.0000   0.0000   0.0000   0.0000
     0.0000   0.0000   0.0000   0.0000   0.0000   0.0000   0.0000   0.0000
     0.0000   0.0000   0.0000   0.0000   0.0000   0.0000   0.0000   0.0000
     0.0000   0.0000   0.0000   0.0000   0.0000   0.0000   0.0000   0.0000
     0.0000   0.0000   0.0000   0.0000   0.0000   0.0000   0.0000   0.0000
     0.0000   0.0000   0.0000   0.0000   0.0000   0.0000   0.0000   0.0000
     0.0000   0.0000   0.0000   0.0000   0.0000   0.0000   0.0000   0.0000
     0.0000

     highest occupied, lowest unoccupied level (ev):     5.3729    7.5740

!    total energy              =   -9923.07752103 Ry
     total all-electron energy =   -140499.018109 Ry
     estimated scf accuracy    <       0.00000035 Ry

     The total energy is the sum of the following terms:
     one-electron contribution =   -2753.62965262 Ry
     hartree contribution      =    1961.23487002 Ry
     xc contribution           =   -1675.05694387 Ry
     ewald contribution        =   -2927.19912172 Ry
     Hubbard energy            =       1.29068310 Ry
     one-center paw contrib.   =   -4529.71735594 Ry
      -> PAW hartree energy AE =     123.10723633 Ry
      -> PAW hartree energy PS =    -122.46330005 Ry
      -> PAW xc energy AE      =    -143.19972270 Ry
      -> PAW xc energy PS      =      47.13839159 Ry
      -> total E_H with PAW    =    1961.87880631 Ry
      -> total E_XC with PAW   =   -1771.11827497 Ry

     convergence has been achieved in   9 iterations

     Writing all to output data dir ./out/ZnS_hub.save/

     General routines

     Parallel routines

     Hubbard U routines

     PAW routines

   This run was terminated on:   3:36:32   1Jul2024

   JOB DONE.