     Program PWSCF v.7.2 starts on 29Jun2024 at  1:51: 4

     Waiting for input...
     Reading input from standard input

     Current dimensions of program PWSCF are:
     Max number of different atomic species (ntypx) = 10
     Max number of k-points (npk) =  40000
     Max angular momentum in pseudopotentials (lmaxx) =  4
     file S.pbe-n-kjpaw_psl.1.0.0.UPF: wavefunction(s)  3S 3P renormalized
     file Zn.pbe-dnl-kjpaw_psl.1.0.0.UPF: wavefunction(s)  4S 3D renormalized
     file Co.pbe-spn-kjpaw_psl.0.3.1.UPF: wavefunction(s)  3P 3D renormalized

     K-points division:     npool     =       5
     R & G space division:  proc/nbgrp/npool/nimage =     112
     Subspace diagonalization in iterative solution of the eigenvalue problem:
     one sub-group per band group will be used

     Using Slab Decomposition

     bravais-lattice index     =            1
     lattice parameter (alat)  =      20.5686  a.u.
     unit-cell volume          =    8701.8437 (a.u.)^3
     number of atoms/cell      =           64
     number of atomic types    =            3
     number of electrons       =       580.00
     number of Kohn-Sham states=          348
     kinetic-energy cutoff     =     150.0000  Ry
     charge density cutoff     =     600.0000  Ry
     scf convergence threshold =      1.0E-08
     mixing beta               =       0.7000
     number of iterations used =            8  plain     mixing
     Exchange-correlation= SLA  PW   PBX  PBC
                           (   1   4   3   4   0   0   0)

     celldm(1)=  20.568554  celldm(2)=   0.000000  celldm(3)=   0.000000
     celldm(4)=   0.000000  celldm(5)=   0.000000  celldm(6)=   0.000000

     crystal axes: (cart. coord. in units of alat)
               a(1) = (   1.000000   0.000000   0.000000 )
               a(2) = (   0.000000   1.000000   0.000000 )
               a(3) = (   0.000000   0.000000   1.000000 )

     reciprocal axes: (cart. coord. in units 2 pi/alat)
               b(1) = (  1.000000  0.000000  0.000000 )
               b(2) = (  0.000000  1.000000  0.000000 )
               b(3) = (  0.000000  0.000000  1.000000 )

     PseudoPot. # 1 for S  read from file:
     /arf/home/amuhaymin/pseudo/S.pbe-n-kjpaw_psl.1.0.0.UPF
     MD5 check sum: fb45dfebcf3e72a4e1bd4a866ec2e262
     Pseudo is Projector augmented-wave + core cor, Zval =  6.0
     Generated using &quot;atomic&quot; code by A. Dal Corso  v.6.3
     Shape of augmentation charge: PSQ
     Using radial grid of 1151 points,  6 beta functions with:
                l(1) =   0
                l(2) =   0
                l(3) =   1
                l(4) =   1
                l(5) =   2
                l(6) =   2
     Q(r) pseudized with 0 coefficients

     PseudoPot. # 2 for Zn read from file:
     /arf/home/amuhaymin/pseudo/Zn.pbe-dnl-kjpaw_psl.1.0.0.UPF
     MD5 check sum: c608214d9520ac179f507641260889e3
     Pseudo is Projector augmented-wave + core cor, Zval = 12.0
     Generated using &quot;atomic&quot; code by A. Dal Corso  v.6.2.2
     Shape of augmentation charge: PSQ
     Using radial grid of 1201 points,  6 beta functions with:
                l(1) =   0
                l(2) =   0
                l(3) =   1
                l(4) =   1
                l(5) =   2
                l(6) =   2
     Q(r) pseudized with 0 coefficients

     PseudoPot. # 3 for Co read from file:
     /arf/home/amuhaymin/pseudo/Co.pbe-spn-kjpaw_psl.0.3.1.UPF
     MD5 check sum: b0a1ad65bf214e88c1f3d33b20c7d919
     Pseudo is Projector augmented-wave + core cor, Zval = 17.0
     Generated using &quot;atomic&quot; code by A. Dal Corso  v.6.2.2
     Shape of augmentation charge: PSQ
     Using radial grid of 1193 points,  6 beta functions with:
                l(1) =   0
                l(2) =   0
                l(3) =   1
                l(4) =   1
                l(5) =   2
                l(6) =   2
     Q(r) pseudized with 0 coefficients

     atomic species   valence    mass     pseudopotential
        S              6.00    32.06500     S ( 1.00)
        Zn            12.00    65.38000     Zn( 1.00)
        Co            17.00    63.54600     Co( 1.00)

     Starting magnetic structure
     atomic species   magnetization
        S            0.000
        Zn           0.000
        Co           0.235

     24 Sym. Ops. (no inversion) found

                                    s                        frac. trans.

      isym =  1     identity

 cryst.   s( 1) = (     1          0          0      )
                  (     0          1          0      )
                  (     0          0          1      )

 cart.    s( 1) = (  1.0000000  0.0000000  0.0000000 )
                  (  0.0000000  1.0000000  0.0000000 )
                  (  0.0000000  0.0000000  1.0000000 )

      isym =  2     180 deg rotation - cart. axis [0,0,1]

[...]

 cryst.   s( 9) = (     0          1          0      )
                  (     0          0          1      )
                  (     1          0          0      )

 cart.    s( 9) = (  0.0000000  0.0000000  1.0000000 )
                  (  1.0000000  0.0000000  0.0000000 )
                  (  0.0000000  1.0000000  0.0000000 )

[...]

 cryst.   s(10) = (     0         -1          0      )
                  (     0          0         -1      )
                  (     1          0          0      )

 cart.    s(10) = (  0.0000000  0.0000000  1.0000000 )
                  ( -1.0000000  0.0000000  0.0000000 )
                  (  0.0000000 -1.0000000  0.0000000 )

[...]

      isym = 12     120 deg rotation - cart. axis [-1,-1,1]

[...]

      isym = 13     inv. 180 deg rotation - cart. axis [1,1,0]

[...]

      isym = 24     inv.  90 deg rotation - cart. axis [1,0,0]

 cryst.   s(24) = (    -1          0          0      )
                  (     0          0         -1      )
                  (     0          1          0      )

 cart.    s(24) = ( -1.0000000  0.0000000  0.0000000 )
                  (  0.0000000  0.0000000  1.0000000 )
                  (  0.0000000 -1.0000000  0.0000000 )

     point group T_d (-43m)
     there are  5 classes
     the character table:

       E     8C3   3C2   6S4   6s_d
A_1    1.00  1.00  1.00  1.00  1.00
A_2    1.00  1.00  1.00 -1.00 -1.00
E      2.00 -1.00  2.00  0.00  0.00
T_1    3.00  0.00 -1.00  1.00 -1.00
T_2    3.00  0.00 -1.00 -1.00  1.00

     the symmetry operations in each class and the name of the first element:

     E        1
          identity
     8C3      5    7    8    6   12    9   10   11
          120 deg rotation - cart. axis [-1,-1,-1]
     3C2      2    3    4
          180 deg rotation - cart. axis [0,0,1]
     6S4     15   16   20   19   23   24
          inv.  90 deg rotation - cart. axis [0,0,-1]
     6s_d    13   14   17   18   21   22
          inv. 180 deg rotation - cart. axis [1,1,0]

   Cartesian axes

     site n.     atom                  positions (alat units)
         1           Zn  tau(   1) = (   0.0000000   0.0000000   0.0000000  )
         2           Zn  tau(   2) = (   0.0000606   0.2498800   0.2498800  )
         3           Zn  tau(   3) = (   0.2498800   0.0000606   0.2498800  )
         4           Zn  tau(   4) = (   0.2498800   0.2498800   0.0000606  )
         5           S   tau(   5) = (   0.1250469   0.3752145   0.3752145  )
         6           S   tau(   6) = (   0.1250222   0.1250222   0.1250222  )
         7           S   tau(   7) = (   0.3752145   0.3752145   0.1250469  )
         8           S   tau(   8) = (   0.3752145   0.1250469   0.3752145  )
         9           Zn  tau(   9) = (   0.0000000   0.0000000   0.5000000  )
        10           Zn  tau(  10) = (  -0.0000606   0.2498800   0.7501200  )
        11           Zn  tau(  11) = (   0.2498800  -0.0000606   0.7501200  )
        12           Zn  tau(  12) = (   0.2501861   0.2501861   0.4989992  )
        13           S   tau(  13) = (   0.1257183   0.3751872   0.8742817  )
        14           S   tau(  14) = (   0.1257183   0.1257183   0.6248128  )
        15           S   tau(  15) = (   0.3794354   0.3794354   0.6205646  )
        16           S   tau(  16) = (   0.3751872   0.1257183   0.8742817  )
        17           Zn  tau(  17) = (   0.0000000   0.5000000   0.0000000  )
        18           Zn  tau(  18) = (  -0.0000606   0.7501200   0.2498800  )
        19           Zn  tau(  19) = (   0.2501861   0.4989992   0.2501861  )
        20           Zn  tau(  20) = (   0.2498800   0.7501200  -0.0000606  )
        21           S   tau(  21) = (   0.1257183   0.8742817   0.3751872  )
        22           S   tau(  22) = (   0.1257183   0.6248128   0.1257183  )
        23           S   tau(  23) = (   0.3751872   0.8742817   0.1257183  )
        24           S   tau(  24) = (   0.3794354   0.6205646   0.3794354  )
        25           Zn  tau(  25) = (   0.0000000   0.5000000   0.5000000  )
        26           Zn  tau(  26) = (   0.0000606   0.7501200   0.7501200  )
        27           Zn  tau(  27) = (   0.2501861   0.5010008   0.7498139  )
        28           Zn  tau(  28) = (   0.2501861   0.7498139   0.5010008  )
        29           S   tau(  29) = (   0.1250222   0.8749778   0.8749778  )
        30           S   tau(  30) = (   0.1250469   0.6247855   0.6247855  )
        31           S   tau(  31) = (   0.3752145   0.8749531   0.6247855  )
        32           S   tau(  32) = (   0.3752145   0.6247855   0.8749531  )
        33           Zn  tau(  33) = (   0.5000000   0.0000000   0.0000000  )
        34           Zn  tau(  34) = (   0.4989992   0.2501861   0.2501861  )
        35           Zn  tau(  35) = (   0.7501200  -0.0000606   0.2498800  )
        36           Zn  tau(  36) = (   0.7501200   0.2498800  -0.0000606  )
        37           S   tau(  37) = (   0.6205646   0.3794354   0.3794354  )
        38           S   tau(  38) = (   0.6248128   0.1257183   0.1257183  )
        39           S   tau(  39) = (   0.8742817   0.3751872   0.1257183  )
        40           S   tau(  40) = (   0.8742817   0.1257183   0.3751872  )
        41           Zn  tau(  41) = (   0.5000000   0.0000000   0.5000000  )
        42           Zn  tau(  42) = (   0.5010008   0.2501861   0.7498139  )
        43           Zn  tau(  43) = (   0.7501200   0.0000606   0.7501200  )
        44           Zn  tau(  44) = (   0.7498139   0.2501861   0.5010008  )
        45           S   tau(  45) = (   0.6247855   0.3752145   0.8749531  )
        46           S   tau(  46) = (   0.6247855   0.1250469   0.6247855  )
        47           S   tau(  47) = (   0.8749531   0.3752145   0.6247855  )
        48           S   tau(  48) = (   0.8749778   0.1250222   0.8749778  )
        49           Zn  tau(  49) = (   0.5000000   0.5000000   0.0000000  )
        50           Zn  tau(  50) = (   0.5010008   0.7498139   0.2501861  )
        51           Zn  tau(  51) = (   0.7498139   0.5010008   0.2501861  )
        52           Zn  tau(  52) = (   0.7501200   0.7501200   0.0000606  )
        53           S   tau(  53) = (   0.6247855   0.8749531   0.3752145  )
        54           S   tau(  54) = (   0.6247855   0.6247855   0.1250469  )
        55           S   tau(  55) = (   0.8749778   0.8749778   0.1250222  )
[...]
     atom  30 (R=0.086)  charge=  3.7400  magn=  0.0001
     atom  31 (R=0.086)  charge=  3.7400  magn=  0.0001
     atom  32 (R=0.086)  charge=  3.7400  magn=  0.0001
     atom  33 (R=0.089)  charge= 10.1379  magn=  0.0016
     atom  34 (R=0.089)  charge= 10.1406  magn=  0.0053
     atom  35 (R=0.089)  charge= 10.1428  magn= -0.0002
     atom  36 (R=0.089)  charge= 10.1428  magn= -0.0002
     atom  37 (R=0.086)  charge=  3.7278  magn=  0.0939
     atom  38 (R=0.086)  charge=  3.7358  magn=  0.0045
     atom  39 (R=0.086)  charge=  3.7358  magn=  0.0045
     atom  40 (R=0.086)  charge=  3.7358  magn=  0.0045
     atom  41 (R=0.089)  charge= 10.1456  magn= -0.0004
     atom  42 (R=0.089)  charge= 10.1406  magn=  0.0053
     atom  43 (R=0.089)  charge= 10.1428  magn= -0.0002
     atom  44 (R=0.089)  charge= 10.1406  magn=  0.0053
     atom  45 (R=0.086)  charge=  3.7400  magn=  0.0001
     atom  46 (R=0.086)  charge=  3.7400  magn=  0.0001
     atom  47 (R=0.086)  charge=  3.7400  magn=  0.0001
     atom  48 (R=0.086)  charge=  3.7393  magn= -0.0038
     atom  49 (R=0.089)  charge= 10.1456  magn= -0.0004
     atom  50 (R=0.089)  charge= 10.1406  magn=  0.0053
     atom  51 (R=0.089)  charge= 10.1406  magn=  0.0053
     atom  52 (R=0.089)  charge= 10.1428  magn= -0.0002
     atom  53 (R=0.086)  charge=  3.7400  magn=  0.0001
     atom  54 (R=0.086)  charge=  3.7400  magn=  0.0001
     atom  55 (R=0.086)  charge=  3.7393  magn= -0.0038
     atom  56 (R=0.086)  charge=  3.7400  magn=  0.0001
     atom  57 (R=0.086)  charge= 14.9532  magn=  2.2839
     atom  58 (R=0.089)  charge= 10.1406  magn=  0.0053
     atom  59 (R=0.089)  charge= 10.1406  magn=  0.0053
     atom  60 (R=0.089)  charge= 10.1406  magn=  0.0053
     atom  61 (R=0.086)  charge=  3.7358  magn=  0.0045
     atom  62 (R=0.086)  charge=  3.7278  magn=  0.0939
     atom  63 (R=0.086)  charge=  3.7358  magn=  0.0045
     atom  64 (R=0.086)  charge=  3.7358  magn=  0.0045

     End of self-consistent calculation

 ------ SPIN UP ------------

          k = 0.0000 0.0000 0.0000 (269825 PWs)   bands (ev):

   -90.9189 -54.1727 -54.1727 -54.1727  -7.4570  -6.9822  -6.9174  -6.9174
    -6.9174  -6.8920  -6.8920  -6.6557  -6.6557  -6.6557  -6.6408  -6.5737
    -6.5737  -6.5737  -6.5732  -6.5732  -6.5732  -6.5686  -6.5686  -6.5411
    -6.5411  -6.5411  -6.5390  -6.3017  -6.3017  -6.3017  -6.2446  -6.2446
    -6.2446  -6.2354  -6.2354  -6.2354  -0.6958  -0.6916  -0.6916  -0.6801
    -0.6801  -0.6801  -0.6616  -0.6537  -0.6537  -0.6461  -0.6461  -0.6461
    -0.5520  -0.5520  -0.5520  -0.5500  -0.5500  -0.5500  -0.5482  -0.5482
    -0.5426  -0.5426  -0.5426  -0.5315  -0.5305  -0.5299  -0.5299  -0.5299
    -0.5242  -0.5242  -0.5242  -0.5194  -0.5194  -0.5194  -0.5161  -0.5161
    -0.5161  -0.5132  -0.5132  -0.5074  -0.5074  -0.5074  -0.4992  -0.4992
    -0.4992  -0.4988  -0.4988  -0.4916  -0.4915  -0.4915  -0.4895  -0.4895
    -0.4895  -0.4851  -0.4851  -0.4851  -0.4842  -0.4842  -0.4842  -0.4381
    -0.4381  -0.4381  -0.3824  -0.3824  -0.3824  -0.3802  -0.3802  -0.3802
    -0.3695  -0.3651  -0.3651  -0.3651  -0.3600  -0.3600  -0.3593  -0.3593
    -0.3593  -0.3298  -0.3298  -0.3298  -0.3186  -0.3186  -0.3186  -0.2501
    -0.2501  -0.2501  -0.2456  -0.2456  -0.2456  -0.2303  -0.2303  -0.2202
    -0.2103  -0.2103  -0.2103  -0.2081  -0.2081  -0.2067  -0.2012  -0.2003
    -0.2003  -0.2003  -0.1824  -0.1824  -0.1813  -0.1813  -0.1813  -0.1783
    -0.1783  -0.1783  -0.1709  -0.1687  -0.1687  -0.1687  -0.1637  -0.1637
    -0.1474  -0.1474  -0.1432  -0.1432  -0.1432  -0.1386  -0.1324  -0.1324
    -0.1324  -0.1260  -0.1260  -0.1205  -0.1205  -0.1205  -0.1088  -0.1016
    -0.1016  -0.1016  -0.1013  -0.1013  -0.1013  -0.0962  -0.0962  -0.0897
    -0.0870  -0.0870  -0.0317  -0.0317  -0.0317   0.0262   0.0408   0.0408
     0.0408   0.1663   0.1663   0.1663   0.2106   0.2106   0.2106   0.4119
     0.4119   0.4119   0.4482   1.0173   1.0173   1.0874   1.0874   1.0874
     1.1096   1.1140   1.1140   1.1301   1.3342   1.3342   1.3342   1.6836
     1.6836   1.6836   1.7010   1.7010   1.7010   1.7016   1.7016   1.7821
     2.1658   2.1658   2.1658   2.4562   2.4562   2.9006   2.9006   2.9006
     2.9334   2.9334   2.9334   2.9499   2.9536   2.9536   2.9536   3.0144
     3.0144   3.0717   3.1002   3.1002   3.1002   3.1021   3.1021   3.1184
     3.1184   3.1184   3.1463   3.1463   3.1463   3.1487   3.3072   3.3072
     3.3072   3.4100   3.4100   3.4100   3.5052   3.5052   3.5052   3.6867
     3.6867   4.3514   4.3514   4.3514   4.3643   4.3643   4.3643   4.3812
     4.3812   4.3812   4.4775   4.4775   4.4775   4.6589   4.6589   4.6589
     4.7023   4.7023   4.7023   4.7029   4.7211   4.7211   4.7330   4.7330
     4.7330   4.7379   4.7379   4.7379   4.8438   4.8438   4.9845   4.9845
     4.9845   5.6342   5.6342   5.6342   7.5989   8.8263   8.8263   8.8263
     8.9091   9.0544   9.0544   9.0544   9.6373   9.6373   9.6871   9.9842
     9.9842   9.9957   9.9957   9.9957  10.0253  10.1553  10.1553  10.1579
    10.1579  10.1579  10.1796  10.3120  10.3120  10.3120  10.3247  10.3247
    10.3247  10.3356  10.3356  10.3370  10.3370  10.3370  10.7882  11.2394
    11.2394  11.2394  11.3220  11.3220  11.3220  11.4641  11.4641  11.4641
    11.4664  11.4664  11.9037  11.9652  11.9655  11.9657  12.1936  12.1937
    12.1937  12.1988  12.2020  12.2040

     occupation numbers
     1.0000   1.0000   1.0000   1.0000   1.0000   1.0000   1.0000   1.0000
     1.0000   1.0000   1.0000   1.0000   1.0000   1.0000   1.0000   1.0000
     1.0000   1.0000   1.0000   1.0000   1.0000   1.0000   1.0000   1.0000
     1.0000   1.0000   1.0000   1.0000   1.0000   1.0000   1.0000   1.0000
     1.0000   1.0000   1.0000   1.0000   1.0000   1.0000   1.0000   1.0000
     1.0000   1.0000   1.0000   1.0000   1.0000   1.0000   1.0000   1.0000
     1.0000   1.0000   1.0000   1.0000   1.0000   1.0000   1.0000   1.0000
     1.0000   1.0000   1.0000   1.0000   1.0000   1.0000   1.0000   1.0000
     1.0000   1.0000   1.0000   1.0000   1.0000   1.0000   1.0000   1.0000
     1.0000   1.0000   1.0000   1.0000   1.0000   1.0000   1.0000   1.0000
     1.0000   1.0000   1.0000   1.0000   1.0000   1.0000   1.0000   1.0000
     1.0000   1.0000   1.0000   1.0000   1.0000   1.0000   1.0000   1.0000
     1.0000   1.0000   1.0000   1.0000   1.0000   1.0000   1.0000   1.0000
     1.0000   1.0000   1.0000   1.0000   1.0000   1.0000   1.0000   1.0000
     1.0000   1.0000   1.0000   1.0000   1.0000   1.0000   1.0000   1.0000
     1.0000   1.0000   1.0000   1.0000   1.0000   1.0000   1.0000   1.0000
     1.0000   1.0000   1.0000   1.0000   1.0000   1.0000   1.0000   1.0000
     1.0000   1.0000   1.0000   1.0000   1.0000   1.0000   1.0000   1.0000
     1.0000   1.0000   1.0000   1.0000   1.0000   1.0000   1.0000   1.0000
     1.0000   1.0000   1.0000   1.0000   1.0000   1.0000   1.0000   1.0000
     1.0000   1.0000   1.0000   1.0000   1.0000   1.0000   1.0000   1.0000
     1.0000   1.0000   1.0000   1.0000   1.0000   1.0000   1.0000   1.0000
     1.0000   1.0000   1.0000   1.0000   1.0000   1.0000   1.0000   1.0000
     1.0000   1.0000   1.0000   1.0000   1.0000   1.0000   1.0000   1.0000
     1.0000   1.0000   1.0000   1.0000   1.0000   1.0000   1.0000   1.0000
     1.0000   1.0000   1.0000   1.0000   1.0000   1.0000   1.0000   1.0000
     1.0000   1.0000   1.0000   1.0000   1.0000   1.0000   1.0000   1.0000
     1.0000   1.0000   1.0000   1.0000   1.0000   1.0000   1.0000   1.0000
     1.0000   1.0000   1.0000   1.0000   1.0000   1.0000   1.0000   1.0000
     1.0000   1.0000   1.0000   1.0000   1.0000   1.0000   1.0000   1.0000
     1.0000   1.0000   1.0000   1.0000   1.0000   1.0000   1.0000   1.0000
     1.0000   1.0000   1.0000   1.0000   1.0000   1.0000   1.0000   1.0000
     1.0000   1.0000   1.0000   1.0000   1.0000   1.0000   1.0000   1.0000
     1.0000   1.0000   1.0000   1.0000   1.0000   1.0000   1.0000   1.0000
     1.0000   1.0000   1.0000   1.0000   1.0000   1.0000   1.0000   1.0000
     1.0000   1.0000   1.0000   1.0000   1.0000   1.0000   1.0000   1.0000
     1.0000   0.0000   0.0000   0.0000   0.0000   0.0000   0.0000   0.0000
     0.0000   0.0000   0.0000   0.0000   0.0000   0.0000   0.0000   0.0000
     0.0000   0.0000   0.0000   0.0000   0.0000   0.0000   0.0000   0.0000
     0.0000   0.0000   0.0000   0.0000   0.0000   0.0000   0.0000   0.0000
     0.0000   0.0000   0.0000   0.0000   0.0000   0.0000   0.0000   0.0000
     0.0000   0.0000   0.0000   0.0000   0.0000   0.0000   0.0000   0.0000
     0.0000   0.0000   0.0000   0.0000   0.0000   0.0000   0.0000   0.0000
     0.0000   0.0000   0.0000   0.0000

[...]

          k =-0.5000-0.5000-0.5000 (269968 PWs)   bands (ev):

[...]

 ------ SPIN DOWN ----------

[...]

          k = 0.2500-0.5000-0.5000 (269956 PWs)   bands (ev):

[...]

          k =-0.5000-0.5000-0.5000 (269968 PWs)   bands (ev):

   -88.1632 -51.4882 -51.4882 -51.4882  -7.0600  -7.0311  -7.0311  -7.0311
    -7.0155  -7.0155  -7.0155  -7.0068  -6.4391  -6.4299  -6.4299  -6.4299
    -6.4147  -6.4147  -6.4132  -6.4132  -6.4132  -6.4105  -6.4105  -6.4105
    -6.4018  -6.4018  -6.4018  -6.4013  -6.4013  -6.4013  -6.3984  -6.3984
    -6.3964  -6.3875  -6.3875  -6.3875  -0.6037  -0.6037  -0.6037  -0.6029
    -0.5977  -0.5977  -0.5977  -0.5937  -0.5937  -0.5937  -0.5937  -0.5937
    -0.5893  -0.5824  -0.5824  -0.5824  -0.5817  -0.5817  -0.5817  -0.5810
    -0.5810  -0.5746  -0.5746  -0.5746  -0.5663  -0.5663  -0.5663  -0.5650
    -0.5650  -0.5650  -0.5568  -0.5568  -0.5568  -0.5560  -0.5560  -0.5560
    -0.5510  -0.5499  -0.5499  -0.5499  -0.5460  -0.5439  -0.5439  -0.5176
    -0.5176  -0.5097  -0.5097  -0.5097  -0.4625  -0.4403  -0.4403  -0.4403
    -0.4357  -0.4357  -0.4357  -0.4236  -0.4236  -0.4236  -0.4235  -0.4235
    -0.4227  -0.4227  -0.4185  -0.4185  -0.4185  -0.4127  -0.4127  -0.4127
    -0.4122  -0.3710  -0.3710  -0.3710  -0.3269  -0.3232  -0.3232  -0.3232
    -0.3197  -0.3197  -0.3197  -0.3147  -0.3147  -0.3147  -0.3097  -0.3097
    -0.3097  -0.3059  -0.3059  -0.2977  -0.2977  -0.2942  -0.2942  -0.2942
    -0.2891  -0.1935  -0.1935  -0.1935  -0.1869  -0.1869  -0.1869  -0.1842
    -0.1842  -0.1688  -0.1688  -0.1688  -0.1685  -0.1685  -0.1685  -0.1542
    -0.1494  -0.1494  -0.1494  -0.1427  -0.1427  -0.1427  -0.1378  -0.1378
    -0.1196  -0.1196  -0.1196  -0.1190  -0.1190  -0.1190  -0.1175  -0.1175
    -0.1175  -0.1088  -0.1088  -0.1088  -0.1065  -0.1047  -0.1047  -0.1047
    -0.0943  -0.0943  -0.0269  -0.0226  -0.0226  -0.0120  -0.0120  -0.0120
    -0.0118  -0.0118  -0.0118  -0.0046  -0.0046  -0.0046   0.0005   0.0005
     0.0005   0.0009   0.0009   0.0120   0.0175   0.0175   0.0175   1.0669
     1.0669   1.0669   1.1620   1.1620   1.1901   1.1901   1.1901   1.1954
     1.1954   1.2007   1.2007   1.2007   1.2038   1.2038   1.2038   1.2133
     1.2133   1.2133   1.2177   1.2182   1.2182   1.2182   1.4719   2.5592
     2.5592   2.5592   2.7943   2.7943   2.7943   2.7951   2.8808   2.9405
     2.9405   3.0863   3.0863   3.0863   3.2349   3.2349   3.2349   3.2508
     3.2508   3.2508   3.2602   3.2602   3.2631   3.2640   3.2640   3.2640
     3.2732   3.2732   3.2732   3.2788   3.2788   3.2788   3.3081   3.7432
     3.7432   3.7432   3.9217   3.9217   4.0013   4.0013   4.0013   4.0152
     4.0345   4.0345   4.0345   4.0375   4.0375   4.0375   4.0402   4.0402
     4.0402   4.0494   4.0494   4.0501   4.0501   4.0501   4.0545   4.6772
     4.6772   4.6772   4.9041   4.9041   5.1097   5.1097   5.1097   5.1200
     5.1200   5.1228   5.1228   5.1228   5.1263   5.1263   5.1263   5.5353
     5.5353   6.6705   6.6705   6.6705   8.9677   8.9677   8.9677   8.9738
     8.9892   8.9892   8.9892   9.1318   9.8800   9.8800   9.8800   9.8941
     9.9009   9.9009   9.9059   9.9059   9.9059   9.9115   9.9115   9.9115
     9.9158   9.9158   9.9158   9.9230   9.9230   9.9245   9.9245   9.9245
     9.9882   9.9882   9.9882  10.3738  11.3763  11.3763  11.3763  11.4704
    11.4704  11.4704  11.5009  11.5009  11.5033  11.5033  11.5033  11.5056
    11.5056  11.5056  11.5063  11.5206  11.5206  11.5206  11.5435  11.5435
    11.6393  11.6393  11.6393  12.2631

     occupation numbers
     1.0000   1.0000   1.0000   1.0000   1.0000   1.0000   1.0000   1.0000
     1.0000   1.0000   1.0000   1.0000   1.0000   1.0000   1.0000   1.0000
     1.0000   1.0000   1.0000   1.0000   1.0000   1.0000   1.0000   1.0000
     1.0000   1.0000   1.0000   1.0000   1.0000   1.0000   1.0000   1.0000
     1.0000   1.0000   1.0000   1.0000   1.0000   1.0000   1.0000   1.0000
     1.0000   1.0000   1.0000   1.0000   1.0000   1.0000   1.0000   1.0000
     1.0000   1.0000   1.0000   1.0000   1.0000   1.0000   1.0000   1.0000
     1.0000   1.0000   1.0000   1.0000   1.0000   1.0000   1.0000   1.0000
     1.0000   1.0000   1.0000   1.0000   1.0000   1.0000   1.0000   1.0000
     1.0000   1.0000   1.0000   1.0000   1.0000   1.0000   1.0000   1.0000
     1.0000   1.0000   1.0000   1.0000   1.0000   1.0000   1.0000   1.0000
     1.0000   1.0000   1.0000   1.0000   1.0000   1.0000   1.0000   1.0000
     1.0000   1.0000   1.0000   1.0000   1.0000   1.0000   1.0000   1.0000
     1.0000   1.0000   1.0000   1.0000   1.0000   1.0000   1.0000   1.0000
     1.0000   1.0000   1.0000   1.0000   1.0000   1.0000   1.0000   1.0000
     1.0000   1.0000   1.0000   1.0000   1.0000   1.0000   1.0000   1.0000
     1.0000   1.0000   1.0000   1.0000   1.0000   1.0000   1.0000   1.0000
     1.0000   1.0000   1.0000   1.0000   1.0000   1.0000   1.0000   1.0000
     1.0000   1.0000   1.0000   1.0000   1.0000   1.0000   1.0000   1.0000
     1.0000   1.0000   1.0000   1.0000   1.0000   1.0000   1.0000   1.0000
     1.0000   1.0000   1.0000   1.0000   1.0000   1.0000   1.0000   1.0000
     1.0000   1.0000   1.0000   1.0000   1.0000   1.0000   1.0000   1.0000
     1.0000   1.0000   1.0000   1.0000   1.0000   1.0000   1.0000   1.0000
     1.0000   1.0000   1.0000   1.0000   1.0000   1.0000   1.0000   1.0000
     1.0000   1.0000   1.0000   1.0000   1.0000   1.0000   1.0000   1.0000
     1.0000   1.0000   1.0000   1.0000   1.0000   1.0000   1.0000   1.0000
     1.0000   1.0000   1.0000   1.0000   1.0000   1.0000   1.0000   1.0000
     1.0000   1.0000   1.0000   1.0000   1.0000   1.0000   1.0000   1.0000
     1.0000   1.0000   1.0000   1.0000   1.0000   1.0000   1.0000   1.0000
     1.0000   1.0000   1.0000   1.0000   1.0000   1.0000   1.0000   1.0000
     1.0000   1.0000   1.0000   1.0000   1.0000   1.0000   1.0000   1.0000
     1.0000   1.0000   1.0000   1.0000   1.0000   1.0000   1.0000   1.0000
     1.0000   1.0000   1.0000   1.0000   1.0000   1.0000   1.0000   1.0000
     1.0000   1.0000   1.0000   1.0000   1.0000   1.0000   1.0000   1.0000
     1.0000   1.0000   1.0000   1.0000   1.0000   1.0000   1.0000   1.0000
     1.0000   1.0000   1.0000   1.0000   1.0000   1.0000   1.0000   0.2219
     0.2219   0.0000   0.0000   0.0000   0.0000   0.0000   0.0000   0.0000
     0.0000   0.0000   0.0000   0.0000   0.0000   0.0000   0.0000   0.0000
     0.0000   0.0000   0.0000   0.0000   0.0000   0.0000   0.0000   0.0000
     0.0000   0.0000   0.0000   0.0000   0.0000   0.0000   0.0000   0.0000
     0.0000   0.0000   0.0000   0.0000   0.0000   0.0000   0.0000   0.0000
     0.0000   0.0000   0.0000   0.0000   0.0000   0.0000   0.0000   0.0000
     0.0000   0.0000   0.0000   0.0000   0.0000   0.0000   0.0000   0.0000
     0.0000   0.0000   0.0000   0.0000

     the Fermi energy is     5.5280 ev

!    total energy              =  -10057.69270197 Ry
     total all-electron energy =   -139695.414613 Ry
     estimated scf accuracy    <          7.6E-10 Ry
     smearing contrib. (-TS)   =      -0.00028251 Ry
     internal energy E=F+TS    =  -10057.69241945 Ry

     The total energy is F=E-TS. E is the sum of the following terms:
     one-electron contribution =   -2929.82418744 Ry
     hartree contribution      =    2037.54630517 Ry
     xc contribution           =   -1657.20067043 Ry
     ewald contribution        =   -2986.39320459 Ry
     one-center paw contrib.   =   -4521.82066216 Ry
      -> PAW hartree energy AE =     123.13325775 Ry
      -> PAW hartree energy PS =    -122.49115859 Ry
      -> PAW xc energy AE      =    -143.19781237 Ry
      -> PAW xc energy PS      =      47.13663681 Ry
      -> total E_H with PAW    =    2038.18840434 Ry
      -> total E_XC with PAW   =   -1753.26184599 Ry

     total magnetization       =     3.26 Bohr mag/cell
     absolute magnetization    =     3.42 Bohr mag/cell

     convergence has been achieved in  18 iterations

     Writing all to output data dir ./out/Co_qp1.save/

     General routines

     Parallel routines

     PAW routines

   This run was terminated on:   1:58: 1  29Jun2024

   JOB DONE.