     Program PWSCF v.7.2 starts on 25Jul2024 at 10:59:34

     Reading input from 2.Cu_vac_in_ZnS.scf.q0.U4.in

     Current dimensions of program PWSCF are:
     Max number of different atomic species (ntypx) = 10
     Max number of k-points (npk) =  40000
     Max angular momentum in pseudopotentials (lmaxx) =  4
     file S.pbe-n-kjpaw_psl.1.0.0.UPF: wavefunction(s)  3S 3P renormalized
     file Zn.pbe-dnl-kjpaw_psl.1.0.0.UPF: wavefunction(s)  4S 3D renormalized
     file Cu.pbe-spn-kjpaw_psl.1.0.0.UPF: wavefunction(s)  4S 3P 3D renormalized

     K-points division:     npool     =       7
     R & G space division:  proc/nbgrp/npool/nimage =      96
     Subspace diagonalization in iterative solution of the eigenvalue problem:
     one sub-group per band group will be used

     Using Slab Decomposition

     bravais-lattice index     =            1
     lattice parameter (alat)  =      20.5686  a.u.
     unit-cell volume          =    8701.8437 (a.u.)^3
     number of atoms/cell      =           63
     number of atomic types    =            3
     number of electrons       =       577.00
     number of Kohn-Sham states=          347
     kinetic-energy cutoff     =     150.0000  Ry
     charge density cutoff     =     600.0000  Ry
     scf convergence threshold =      1.0E-08
     mixing beta               =       0.7000
     number of iterations used =            8  plain     mixing
     Exchange-correlation= SLA  PW   PBX  PBC
                           (   1   4   3   4   0   0   0)
     Hubbard projectors: ortho-atomic
     Hubbard parameters of DFT+U (Dudarev formulation) in eV:
     U(Zn-3d) =  7.0000
     U(Cu-3d) =  4.0000

     Internal variables: lda_plus_u = T, lda_plus_u_kind = 0

     celldm(1)=  20.568554  celldm(2)=   0.000000  celldm(3)=   0.000000
     celldm(4)=   0.000000  celldm(5)=   0.000000  celldm(6)=   0.000000

     crystal axes: (cart. coord. in units of alat)
               a(1) = (   1.000000   0.000000   0.000000 )
               a(2) = (   0.000000   1.000000   0.000000 )
               a(3) = (   0.000000   0.000000   1.000000 )

     reciprocal axes: (cart. coord. in units 2 pi/alat)
               b(1) = (  1.000000  0.000000  0.000000 )
               b(2) = (  0.000000  1.000000  0.000000 )
               b(3) = (  0.000000  0.000000  1.000000 )

     PseudoPot. # 1 for S  read from file:
     /arf/home/amuhaymin/pseudo/S.pbe-n-kjpaw_psl.1.0.0.UPF
     MD5 check sum: fb45dfebcf3e72a4e1bd4a866ec2e262
     Pseudo is Projector augmented-wave + core cor, Zval =  6.0
     Generated using &quot;atomic&quot; code by A. Dal Corso  v.6.3
     Shape of augmentation charge: PSQ
     Using radial grid of 1151 points,  6 beta functions with:
                l(1) =   0
                l(2) =   0
                l(3) =   1
                l(4) =   1
                l(5) =   2
                l(6) =   2
     Q(r) pseudized with 0 coefficients

     PseudoPot. # 2 for Zn read from file:
     /arf/home/amuhaymin/pseudo/Zn.pbe-dnl-kjpaw_psl.1.0.0.UPF
     MD5 check sum: c608214d9520ac179f507641260889e3
     Pseudo is Projector augmented-wave + core cor, Zval = 12.0
     Generated using &quot;atomic&quot; code by A. Dal Corso  v.6.2.2
     Shape of augmentation charge: PSQ
     Using radial grid of 1201 points,  6 beta functions with:
                l(1) =   0
                l(2) =   0
                l(3) =   1
                l(4) =   1
                l(5) =   2
                l(6) =   2
     Q(r) pseudized with 0 coefficients

     PseudoPot. # 3 for Cu read from file:
     /arf/home/amuhaymin/pseudo/Cu.pbe-spn-kjpaw_psl.1.0.0.UPF
     MD5 check sum: e7cbaad2f97193e5fe23251a619a52b0
     Pseudo is Projector augmented-wave + core cor, Zval = 19.0
     Generated using &quot;atomic&quot; code by A. Dal Corso  v.6.3
     Shape of augmentation charge: PSQ
     Using radial grid of 1199 points,  6 beta functions with:
                l(1) =   0
                l(2) =   0
                l(3) =   1
                l(4) =   1
                l(5) =   2
                l(6) =   2
     Q(r) pseudized with 0 coefficients

     atomic species   valence    mass     pseudopotential
        S              6.00    32.06500     S ( 1.00)
        Zn            12.00    65.38000     Zn( 1.00)
        Cu            19.00    63.54600     Cu( 1.00)

     Starting magnetic structure
     atomic species   magnetization
        S            0.000
        Zn           0.000
        Cu           0.053

      6 Sym. Ops. (no inversion) found

                                    s                        frac. trans.

      isym =  1     identity

 cryst.   s( 1) = (     1          0          0      )
                  (     0          1          0      )
                  (     0          0          1      )

 cart.    s( 1) = (  1.0000000  0.0000000  0.0000000 )
                  (  0.0000000  1.0000000  0.0000000 )
                  (  0.0000000  0.0000000  1.0000000 )

      isym =  2     120 deg rotation - cart. axis [-1,-1,-1]

[...]

      isym =  3     120 deg rotation - cart. axis [1,1,1]

[...]

      isym =  4     inv. 180 deg rotation - cart. axis [1,-1,0]

[...]

      isym =  6     inv. 180 deg rotation - cart. axis [0,1,-1]

 cryst.   s( 6) = (     1          0          0      )
                  (     0          0          1      )
                  (     0          1          0      )

 cart.    s( 6) = (  1.0000000  0.0000000  0.0000000 )
                  (  0.0000000  0.0000000  1.0000000 )
                  (  0.0000000  1.0000000  0.0000000 )

     point group C_3v (3m)
     there are  3 classes
     the character table:

       E     2C3   3s_v
A_1    1.00  1.00  1.00
A_2    1.00  1.00 -1.00
E      2.00 -1.00  0.00

     the symmetry operations in each class and the name of the first element:

     E        1
          identity
     2C3      2    3
          120 deg rotation - cart. axis [-1,-1,-1]
     3s_v     4    5    6
          inv. 180 deg rotation - cart. axis [1,-1,0]

   Cartesian axes

     site n.     atom                  positions (alat units)
         1           Zn  tau(   1) = (   0.0004645   0.0004645   0.0004645  )
         2           Zn  tau(   2) = (   0.0002483   0.2504838   0.2504838  )
         3           Zn  tau(   3) = (   0.2504838   0.0002483   0.2504838  )
         4           Zn  tau(   4) = (   0.2504838   0.2504838   0.0002483  )
         5           S   tau(   5) = (   0.1255605   0.3751986   0.3751986  )
         6           S   tau(   6) = (   0.1252932   0.1252932   0.1252932  )
         7           S   tau(   7) = (   0.3751986   0.3751986   0.1255605  )
         8           S   tau(   8) = (   0.3751986   0.1255605   0.3751986  )
         9           Zn  tau(   9) = (   0.0005645   0.0005645   0.4998452  )
        10           Zn  tau(  10) = (   0.0000697   0.2511310   0.7499709  )
        11           Zn  tau(  11) = (   0.2511310   0.0000697   0.7499709  )
        12           Zn  tau(  12) = (   0.2516864   0.2516864   0.5024653  )
        13           S   tau(  13) = (   0.1248499   0.3755721   0.8753365  )
        14           S   tau(  14) = (   0.1248831   0.1248831   0.6254762  )
        15           S   tau(  15) = (   0.3757772   0.3757772   0.6262808  )
        16           S   tau(  16) = (   0.3755721   0.1248499   0.8753365  )
        17           Zn  tau(  17) = (   0.0005645   0.4998452   0.0005645  )
        18           Zn  tau(  18) = (   0.0000697   0.7499709   0.2511310  )
        19           Zn  tau(  19) = (   0.2516864   0.5024653   0.2516864  )
        20           Zn  tau(  20) = (   0.2511310   0.7499709   0.0000697  )
        21           S   tau(  21) = (   0.1248499   0.8753365   0.3755721  )
        22           S   tau(  22) = (   0.1248831   0.6254762   0.1248831  )
        23           S   tau(  23) = (   0.3755721   0.8753365   0.1248499  )
        24           S   tau(  24) = (   0.3757772   0.6262808   0.3757772  )
        25           Zn  tau(  25) = (   0.0011759   0.5000033   0.5000033  )
        26           Zn  tau(  26) = (   0.0023420   0.7501186   0.7501186  )
        27           Zn  tau(  27) = (   0.2505647   0.4981867   0.7481449  )
        28           Zn  tau(  28) = (   0.2505647   0.7481449   0.4981867  )
        29           S   tau(  29) = (   0.1259749   0.8753576   0.8753576  )
        30           S   tau(  30) = (   0.1253465   0.6251146   0.6251146  )
        31           S   tau(  31) = (   0.3768929   0.8730352   0.6242424  )
        32           S   tau(  32) = (   0.3768929   0.6242424   0.8730352  )
        33           Zn  tau(  33) = (   0.4998452   0.0005645   0.0005645  )
        34           Zn  tau(  34) = (   0.5024653   0.2516864   0.2516864  )
        35           Zn  tau(  35) = (   0.7499709   0.0000697   0.2511310  )
        36           Zn  tau(  36) = (   0.7499709   0.2511310   0.0000697  )
        37           S   tau(  37) = (   0.6262808   0.3757772   0.3757772  )
        38           S   tau(  38) = (   0.6254762   0.1248831   0.1248831  )
        39           S   tau(  39) = (   0.8753365   0.3755721   0.1248499  )
        40           S   tau(  40) = (   0.8753365   0.1248499   0.3755721  )
        41           Zn  tau(  41) = (   0.5000033   0.0011759   0.5000033  )
        42           Zn  tau(  42) = (   0.4981867   0.2505647   0.7481449  )
        43           Zn  tau(  43) = (   0.7501186   0.0023420   0.7501186  )
        44           Zn  tau(  44) = (   0.7481449   0.2505647   0.4981867  )
        45           S   tau(  45) = (   0.6242424   0.3768929   0.8730352  )
        46           S   tau(  46) = (   0.6251146   0.1253465   0.6251146  )
        47           S   tau(  47) = (   0.8730352   0.3768929   0.6242424  )
        48           S   tau(  48) = (   0.8753576   0.1259749   0.8753576  )
        49           Zn  tau(  49) = (   0.5000033   0.5000033   0.0011759  )
        50           Zn  tau(  50) = (   0.4981867   0.7481449   0.2505647  )
        51           Zn  tau(  51) = (   0.7481449   0.4981867   0.2505647  )
        52           Zn  tau(  52) = (   0.7501186   0.7501186   0.0023420  )
        53           S   tau(  53) = (   0.6242424   0.8730352   0.3768929  )
        54           S   tau(  54) = (   0.6251146   0.6251146   0.1253465  )
        55           S   tau(  55) = (   0.8753576   0.8753576   0.1259749  )
        56           S   tau(  56) = (   0.8730352   0.6242424   0.3768929  )
        57           Cu  tau(  57) = (   0.4765392   0.4765392   0.4765392  )
        58           Zn  tau(  58) = (   0.5003010   0.7529300   0.7529300  )
        59           Zn  tau(  59) = (   0.7529300   0.5003010   0.7529300  )
        60           Zn  tau(  60) = (   0.7529300   0.7529300   0.5003010  )
        61           S   tau(  61) = (   0.6272035   0.8751269   0.8751269  )
        62           S   tau(  62) = (   0.8751269   0.8751269   0.6272035  )
        63           S   tau(  63) = (   0.8751269   0.6272035   0.8751269  )

   Crystallographic axes

     site n.     atom                  positions (cryst. coord.)
         1           Zn  tau(   1) = (  0.0004645  0.0004645  0.0004645  )
[...]
     atom  30 (R=0.085)  charge=  3.6805  magn= -0.0001
     atom  31 (R=0.085)  charge=  3.6721  magn=  0.0117
     atom  32 (R=0.085)  charge=  3.6721  magn=  0.0117
     atom  33 (R=0.088)  charge= 10.1129  magn=  0.0025
     atom  34 (R=0.088)  charge= 10.1103  magn=  0.0008
     atom  35 (R=0.088)  charge= 10.1082  magn=  0.0020
     atom  36 (R=0.088)  charge= 10.1082  magn=  0.0020
     atom  37 (R=0.085)  charge=  3.6881  magn=  0.0031
     atom  38 (R=0.085)  charge=  3.6759  magn=  0.0067
     atom  39 (R=0.085)  charge=  3.6791  magn=  0.0007
     atom  40 (R=0.085)  charge=  3.6791  magn=  0.0007
     atom  41 (R=0.088)  charge= 10.1130  magn= -0.0001
     atom  42 (R=0.088)  charge= 10.1158  magn= -0.0000
     atom  43 (R=0.088)  charge= 10.1148  magn= -0.0001
     atom  44 (R=0.088)  charge= 10.1158  magn= -0.0000
     atom  45 (R=0.085)  charge=  3.6721  magn=  0.0117
     atom  46 (R=0.085)  charge=  3.6805  magn= -0.0001
     atom  47 (R=0.085)  charge=  3.6721  magn=  0.0117
     atom  48 (R=0.085)  charge=  3.6784  magn=  0.0010
     atom  49 (R=0.088)  charge= 10.1130  magn= -0.0001
     atom  50 (R=0.088)  charge= 10.1158  magn= -0.0000
     atom  51 (R=0.088)  charge= 10.1158  magn= -0.0000
     atom  52 (R=0.088)  charge= 10.1148  magn= -0.0001
     atom  53 (R=0.085)  charge=  3.6721  magn=  0.0117
     atom  54 (R=0.085)  charge=  3.6805  magn= -0.0001
     atom  55 (R=0.085)  charge=  3.6784  magn=  0.0010
     atom  56 (R=0.085)  charge=  3.6721  magn=  0.0117
     atom  57 (R=0.085)  charge= 17.2476  magn=  0.0066
     atom  58 (R=0.088)  charge= 10.0868  magn=  0.0339
     atom  59 (R=0.088)  charge= 10.0868  magn=  0.0339
     atom  60 (R=0.088)  charge= 10.0868  magn=  0.0339
     atom  61 (R=0.085)  charge=  3.6760  magn=  0.0180
     atom  62 (R=0.085)  charge=  3.6760  magn=  0.0180
     atom  63 (R=0.085)  charge=  3.6760  magn=  0.0180

     End of self-consistent calculation

 ------ SPIN UP ------------

          k = 0.0000 0.0000 0.0000 (269825 PWs)   bands (ev):

  -104.2847 -61.7413 -61.6794 -61.6794  -7.5935  -7.1938  -7.1938  -7.1725
    -7.1637  -7.1637  -7.1120  -7.0005  -7.0005  -6.9843  -6.9542  -6.9542
    -6.9522  -6.9260  -6.9260  -6.9216  -6.9216  -6.9182  -6.9084  -6.8582
    -6.8582  -6.8553  -6.7655  -6.7655  -6.7303  -6.7270  -6.7028  -6.6973
    -6.6973  -6.5789  -6.5789  -3.8993  -3.8851  -3.8851  -3.8850  -3.8778
    -3.8778  -3.8624  -3.8605  -3.8605  -3.8478  -3.8407  -3.8407  -3.8282
    -3.8194  -3.8194  -3.7800  -3.7770  -3.7770  -3.7547  -3.7547  -3.7515
    -3.7482  -3.7482  -3.7403  -3.7399  -3.7399  -3.7291  -3.7291  -3.7270
    -3.7260  -3.7260  -3.7243  -3.7241  -3.7139  -3.7137  -3.7137  -3.7096
    -3.7096  -3.7074  -3.7074  -3.7046  -3.6992  -3.6938  -3.6938  -3.6912
    -3.6876  -3.6851  -3.6851  -3.6826  -3.6742  -3.6742  -3.6662  -3.6662
    -3.6627  -3.6580  -3.6580  -3.6563  -3.6563  -3.6465  -3.6465  -3.6420
    -3.6416  -3.6397  -3.6377  -3.6377  -3.6355  -3.6355  -3.6345  -3.6311
    -3.6158  -3.6103  -3.6103  -3.6025  -3.6025  -3.5990  -3.5989  -3.5874
    -3.5874  -3.5847  -3.5802  -3.5802  -3.5778  -3.5743  -3.5743  -3.5720
    -3.5689  -3.5689  -3.5682  -3.5682  -3.5654  -3.5640  -3.5640  -3.5572
    -3.5572  -3.5556  -3.5512  -3.5512  -3.5477  -3.5408  -3.5385  -3.5383
    -3.5383  -3.5296  -3.5296  -3.5228  -3.5228  -3.5223  -3.5216  -3.5216
    -3.5155  -3.5155  -3.5090  -3.5053  -3.4988  -3.4988  -3.4948  -3.4747
    -3.4747  -3.4675  -3.4675  -3.4668  -3.4547  -3.4547  -3.4536  -3.4511
    -3.4511  -3.4504  -3.4487  -3.4316  -3.4316  -3.4223  -3.2501  -3.2430
    -3.2430  -3.2413  -3.2413  -3.2352  -3.2106  -3.2106  -3.1974  -3.1974
    -3.1933  -3.1401  -3.1213  -3.1213  -3.0954  -3.0153  -3.0153  -3.0066
    -2.9094  -2.8828  -2.8828  -2.8730  -2.8523  -2.8523   0.2068   0.2951
     0.3042   0.3042   0.6491   0.6505   0.6505   0.8402   0.8402   0.8719
     0.8918   0.8964   0.8964   1.0650   1.1850   1.1850   1.2467   1.2467
     1.2670   1.2753   1.2935   1.2935   1.4461   1.4461   1.7275   2.2060
     2.2060   2.3525   2.4471   2.4471   2.5261   2.5261   2.5279   2.5570
     2.5629   2.5629   2.6516   2.7086   2.7086   2.7215   2.7215   2.7236
     2.7309   2.7378   2.7378   2.7703   2.7703   2.7796   2.7892   2.8193
     2.8551   2.8551   2.9852   2.9852   3.0343   3.1500   3.1500   3.1707
     3.2458   3.2458   3.4164   3.5070   3.5070   3.5977   3.5977   3.9479
     4.0161   4.0161   4.0274   4.0498   4.0724   4.0844   4.0844   4.1401
     4.1401   4.1795   4.2302   4.2302   4.3132   4.3132   4.3189   4.3437
     4.3512   4.3512   4.3750   4.3750   4.3852   4.3859   4.4104   4.4104
     4.4476   4.6230   4.6230   4.8964   4.8964   5.1229   5.4374   5.4374
     6.2406   7.7334   8.4340   8.4340   8.7346   8.7760   8.7788   8.7788
     8.9408   8.9408   9.0689   9.5217   9.5217   9.5249   9.7105   9.8646
     9.8646   9.9315   9.9450   9.9450  10.0043  10.0049  10.0049  10.0285
    10.0285  10.0291  10.1757  10.1757  10.1834  10.1914  10.2046  10.2046
    10.2436  10.2436  10.3533  10.6459  10.6519  10.6519  11.0245  11.1466
    11.1466  11.2112  11.2112  11.3340  11.3491  11.3491  11.3647  11.6975
    11.6975  11.7037  11.8506  11.8506  11.8702  11.8789  12.0000  12.0156
    12.0156  12.0362  12.0363

     occupation numbers
     1.0000   1.0000   1.0000   1.0000   1.0000   1.0000   1.0000   1.0000
     1.0000   1.0000   1.0000   1.0000   1.0000   1.0000   1.0000   1.0000
     1.0000   1.0000   1.0000   1.0000   1.0000   1.0000   1.0000   1.0000
     1.0000   1.0000   1.0000   1.0000   1.0000   1.0000   1.0000   1.0000
     1.0000   1.0000   1.0000   1.0000   1.0000   1.0000   1.0000   1.0000
     1.0000   1.0000   1.0000   1.0000   1.0000   1.0000   1.0000   1.0000
     1.0000   1.0000   1.0000   1.0000   1.0000   1.0000   1.0000   1.0000
     1.0000   1.0000   1.0000   1.0000   1.0000   1.0000   1.0000   1.0000
     1.0000   1.0000   1.0000   1.0000   1.0000   1.0000   1.0000   1.0000
     1.0000   1.0000   1.0000   1.0000   1.0000   1.0000   1.0000   1.0000
     1.0000   1.0000   1.0000   1.0000   1.0000   1.0000   1.0000   1.0000
     1.0000   1.0000   1.0000   1.0000   1.0000   1.0000   1.0000   1.0000
     1.0000   1.0000   1.0000   1.0000   1.0000   1.0000   1.0000   1.0000
     1.0000   1.0000   1.0000   1.0000   1.0000   1.0000   1.0000   1.0000
     1.0000   1.0000   1.0000   1.0000   1.0000   1.0000   1.0000   1.0000
     1.0000   1.0000   1.0000   1.0000   1.0000   1.0000   1.0000   1.0000
     1.0000   1.0000   1.0000   1.0000   1.0000   1.0000   1.0000   1.0000
     1.0000   1.0000   1.0000   1.0000   1.0000   1.0000   1.0000   1.0000
     1.0000   1.0000   1.0000   1.0000   1.0000   1.0000   1.0000   1.0000
     1.0000   1.0000   1.0000   1.0000   1.0000   1.0000   1.0000   1.0000
     1.0000   1.0000   1.0000   1.0000   1.0000   1.0000   1.0000   1.0000
     1.0000   1.0000   1.0000   1.0000   1.0000   1.0000   1.0000   1.0000
     1.0000   1.0000   1.0000   1.0000   1.0000   1.0000   1.0000   1.0000
     1.0000   1.0000   1.0000   1.0000   1.0000   1.0000   1.0000   1.0000
     1.0000   1.0000   1.0000   1.0000   1.0000   1.0000   1.0000   1.0000
     1.0000   1.0000   1.0000   1.0000   1.0000   1.0000   1.0000   1.0000
     1.0000   1.0000   1.0000   1.0000   1.0000   1.0000   1.0000   1.0000
     1.0000   1.0000   1.0000   1.0000   1.0000   1.0000   1.0000   1.0000
     1.0000   1.0000   1.0000   1.0000   1.0000   1.0000   1.0000   1.0000
     1.0000   1.0000   1.0000   1.0000   1.0000   1.0000   1.0000   1.0000
     1.0000   1.0000   1.0000   1.0000   1.0000   1.0000   1.0000   1.0000
     1.0000   1.0000   1.0000   1.0000   1.0000   1.0000   1.0000   1.0000
     1.0000   1.0000   1.0000   1.0000   1.0000   1.0000   1.0000   1.0000
     1.0000   1.0000   1.0000   1.0000   1.0000   1.0000   1.0000   1.0000
     1.0000   1.0000   1.0000   1.0000   1.0000   1.0000   1.0000   1.0000
     1.0000   1.0000   1.0000   1.0000   1.0000   1.0000   1.0000   1.0000
     1.0000   0.0000   0.0000   0.0000   0.0000   0.0000   0.0000   0.0000
     0.0000   0.0000   0.0000   0.0000   0.0000   0.0000   0.0000   0.0000
     0.0000   0.0000   0.0000   0.0000   0.0000   0.0000   0.0000   0.0000
     0.0000   0.0000   0.0000   0.0000   0.0000   0.0000   0.0000   0.0000
     0.0000   0.0000   0.0000   0.0000   0.0000   0.0000   0.0000   0.0000
     0.0000   0.0000   0.0000   0.0000   0.0000   0.0000   0.0000   0.0000
     0.0000   0.0000   0.0000   0.0000   0.0000   0.0000   0.0000   0.0000
     0.0000   0.0000   0.0000

[...]

          k =-0.5000-0.5000-0.5000 (269968 PWs)   bands (ev):

[...]

 ------ SPIN DOWN ----------

[...]

          k =-0.2500 0.0000 0.2500 (269929 PWs)   bands (ev):

[...]

          k = 0.2500-0.2500-0.5000 (269988 PWs)   bands (ev):

  -104.2774 -61.7290 -61.6747 -61.6747  -7.4294  -7.3882  -7.2391  -7.2275
    -7.2044  -7.1698  -7.0947  -7.0362  -6.9767  -6.9517  -6.9442  -6.9307
    -6.9166  -6.8838  -6.8756  -6.8659  -6.8604  -6.8396  -6.8352  -6.8207
    -6.8148  -6.8009  -6.7838  -6.7799  -6.7644  -6.7582  -6.7392  -6.7298
    -6.6944  -6.6025  -6.5925  -3.8736  -3.8700  -3.8680  -3.8650  -3.8621
    -3.8579  -3.8553  -3.8307  -3.8301  -3.8228  -3.8207  -3.8196  -3.8111
    -3.8067  -3.8054  -3.7730  -3.7710  -3.7633  -3.7605  -3.7572  -3.7539
    -3.7491  -3.7472  -3.7463  -3.7425  -3.7408  -3.7357  -3.7349  -3.7319
    -3.7289  -3.7235  -3.7217  -3.7177  -3.7160  -3.7134  -3.7100  -3.7064
    -3.7046  -3.7023  -3.6971  -3.6949  -3.6921  -3.6890  -3.6885  -3.6853
    -3.6822  -3.6783  -3.6731  -3.6708  -3.6695  -3.6677  -3.6656  -3.6628
    -3.6601  -3.6592  -3.6557  -3.6536  -3.6520  -3.6504  -3.6470  -3.6422
    -3.6410  -3.6363  -3.6317  -3.6308  -3.6278  -3.6228  -3.6214  -3.6198
    -3.6154  -3.6148  -3.6133  -3.6099  -3.6051  -3.6038  -3.6030  -3.5975
    -3.5922  -3.5910  -3.5880  -3.5826  -3.5822  -3.5819  -3.5801  -3.5793
    -3.5775  -3.5715  -3.5702  -3.5684  -3.5646  -3.5611  -3.5607  -3.5559
    -3.5523  -3.5520  -3.5493  -3.5486  -3.5469  -3.5438  -3.5427  -3.5399
    -3.5380  -3.5362  -3.5338  -3.5322  -3.5294  -3.5274  -3.5184  -3.5159
    -3.5134  -3.5084  -3.5026  -3.5000  -3.4869  -3.4851  -3.4822  -3.4804
    -3.4790  -3.4678  -3.4635  -3.4598  -3.4578  -3.4552  -3.4525  -3.4433
    -3.4422  -3.4400  -3.4332  -3.4307  -3.4243  -3.4034  -3.3841  -3.3013
    -3.2750  -3.2694  -3.2556  -3.1781  -3.1720  -3.1694  -3.1356  -3.1229
    -3.1146  -3.0559  -3.0434  -3.0400  -3.0288  -3.0124  -3.0079  -2.9954
    -2.9765  -2.9641  -2.9552  -2.9428  -2.9372  -2.9255   0.5174   0.5503
     0.6334   0.6935   0.7145   0.7308   0.7518   0.7674   0.7731   0.7982
     0.8087   0.8310   0.8434   0.8636   0.8872   0.8926   0.9810   1.0954
     1.1543   1.2162   1.2673   1.3233   1.3682   1.4197   1.5579   1.6802
     2.1167   2.2439   2.3082   2.3460   2.3764   2.4286   2.4475   2.4731
     2.5637   2.6269   2.6389   2.6585   2.6923   2.7284   2.7505   2.8698
     2.8801   2.9016   3.0386   3.1079   3.1632   3.2017   3.2417   3.2955
     3.3325   3.3402   3.3509   3.3667   3.3744   3.4036   3.4487   3.4647
     3.4816   3.5008   3.5342   3.5422   3.5707   3.5717   3.5864   3.6294
     3.6559   3.6815   3.7312   3.7385   3.7932   3.8217   3.8478   3.9315
     3.9481   3.9735   4.0098   4.0311   4.0975   4.1036   4.1298   4.1812
     4.2248   4.2543   4.2602   4.3045   4.3891   4.4859   4.5819   4.6502
     4.6770   4.6881   4.7618   4.8113   4.8411   4.8706   5.2834   5.3373
     7.1319   8.3494   8.4572   8.9418   8.9656   9.0886   9.1367   9.3064
     9.3643   9.3811   9.4421   9.4923   9.5744   9.5923   9.6075   9.6377
     9.6862   9.7452   9.7681   9.7879   9.8169   9.8655   9.8880   9.9416
     9.9541   9.9846  10.0639  10.0777  10.0993  10.1936  10.2253  10.3330
    10.3622  10.4339  10.4806  10.6344  10.6812  10.7595  10.8073  10.8362
    10.8781  10.9548  11.0156  11.1081  11.2299  11.2770  11.3355  11.4150
    11.4712  11.4815  11.5011  11.5251  11.5752  11.5856  11.6164  11.6311
    11.6376  11.6506  11.6828

     occupation numbers
     1.0000   1.0000   1.0000   1.0000   1.0000   1.0000   1.0000   1.0000
     1.0000   1.0000   1.0000   1.0000   1.0000   1.0000   1.0000   1.0000
     1.0000   1.0000   1.0000   1.0000   1.0000   1.0000   1.0000   1.0000
     1.0000   1.0000   1.0000   1.0000   1.0000   1.0000   1.0000   1.0000
     1.0000   1.0000   1.0000   1.0000   1.0000   1.0000   1.0000   1.0000
     1.0000   1.0000   1.0000   1.0000   1.0000   1.0000   1.0000   1.0000
     1.0000   1.0000   1.0000   1.0000   1.0000   1.0000   1.0000   1.0000
     1.0000   1.0000   1.0000   1.0000   1.0000   1.0000   1.0000   1.0000
     1.0000   1.0000   1.0000   1.0000   1.0000   1.0000   1.0000   1.0000
     1.0000   1.0000   1.0000   1.0000   1.0000   1.0000   1.0000   1.0000
     1.0000   1.0000   1.0000   1.0000   1.0000   1.0000   1.0000   1.0000
     1.0000   1.0000   1.0000   1.0000   1.0000   1.0000   1.0000   1.0000
     1.0000   1.0000   1.0000   1.0000   1.0000   1.0000   1.0000   1.0000
     1.0000   1.0000   1.0000   1.0000   1.0000   1.0000   1.0000   1.0000
     1.0000   1.0000   1.0000   1.0000   1.0000   1.0000   1.0000   1.0000
     1.0000   1.0000   1.0000   1.0000   1.0000   1.0000   1.0000   1.0000
     1.0000   1.0000   1.0000   1.0000   1.0000   1.0000   1.0000   1.0000
     1.0000   1.0000   1.0000   1.0000   1.0000   1.0000   1.0000   1.0000
     1.0000   1.0000   1.0000   1.0000   1.0000   1.0000   1.0000   1.0000
     1.0000   1.0000   1.0000   1.0000   1.0000   1.0000   1.0000   1.0000
     1.0000   1.0000   1.0000   1.0000   1.0000   1.0000   1.0000   1.0000
     1.0000   1.0000   1.0000   1.0000   1.0000   1.0000   1.0000   1.0000
     1.0000   1.0000   1.0000   1.0000   1.0000   1.0000   1.0000   1.0000
     1.0000   1.0000   1.0000   1.0000   1.0000   1.0000   1.0000   1.0000
     1.0000   1.0000   1.0000   1.0000   1.0000   1.0000   1.0000   1.0000
     1.0000   1.0000   1.0000   1.0000   1.0000   1.0000   1.0000   1.0000
     1.0000   1.0000   1.0000   1.0000   1.0000   1.0000   1.0000   1.0000
     1.0000   1.0000   1.0000   1.0000   1.0000   1.0000   1.0000   1.0000
     1.0000   1.0000   1.0000   1.0000   1.0000   1.0000   1.0000   1.0000
     1.0000   1.0000   1.0000   1.0000   1.0000   1.0000   1.0000   1.0000
     1.0000   1.0000   1.0000   1.0000   1.0000   1.0000   1.0000   1.0000
     1.0000   1.0000   1.0000   1.0000   1.0000   1.0000   1.0000   1.0000
     1.0000   1.0000   1.0000   1.0000   1.0000   1.0000   1.0000   1.0000
     1.0000   1.0000   1.0000   1.0000   1.0000   1.0000   1.0000   1.0000
     1.0000   1.0000   1.0000   1.0000   1.0000   1.0000   1.0000   1.0000
     1.0000   1.0000   1.0000   1.0000   1.0000   1.0000   1.0000   1.0000
     0.0000   0.0000   0.0000   0.0000   0.0000   0.0000   0.0000   0.0000
     0.0000   0.0000   0.0000   0.0000   0.0000   0.0000   0.0000   0.0000
     0.0000   0.0000   0.0000   0.0000   0.0000   0.0000   0.0000   0.0000
     0.0000   0.0000   0.0000   0.0000   0.0000   0.0000   0.0000   0.0000
     0.0000   0.0000   0.0000   0.0000   0.0000   0.0000   0.0000   0.0000
     0.0000   0.0000   0.0000   0.0000   0.0000   0.0000   0.0000   0.0000
     0.0000   0.0000   0.0000   0.0000   0.0000   0.0000   0.0000   0.0000
     0.0000   0.0000   0.0000

     the Fermi energy is     6.6478 ev

!    total energy              =  -10100.58961100 Ry
     total all-electron energy =   -139419.118659 Ry
     estimated scf accuracy    <          9.2E-10 Ry
     smearing contrib. (-TS)   =      -0.00000000 Ry
     internal energy E=F+TS    =  -10100.58961100 Ry

     The total energy is F=E-TS. E is the sum of the following terms:
     one-electron contribution =   -3114.37112854 Ry
     hartree contribution      =    2133.96149925 Ry
     xc contribution           =   -1661.81884530 Ry
     ewald contribution        =   -2971.75697496 Ry
     Hubbard energy            =       0.27544293 Ry
     one-center paw contrib.   =   -4486.87960439 Ry
      -> PAW hartree energy AE =     123.70180750 Ry
      -> PAW hartree energy PS =    -123.05434628 Ry
      -> PAW xc energy AE      =    -143.26257549 Ry
      -> PAW xc energy PS      =      47.19933331 Ry
      -> total E_H with PAW    =    2134.60896047 Ry
      -> total E_XC with PAW   =   -1757.88208747 Ry

     total magnetization       =     1.00 Bohr mag/cell
     absolute magnetization    =     1.06 Bohr mag/cell

     convergence has been achieved in   3 iterations

     Writing all to output data dir ./out/Cu_vac_q0_U4.save/

     General routines

     Parallel routines

     Hubbard U routines

     PAW routines

   This run was terminated on:  11: 5:44  25Jul2024

   JOB DONE.