     Program PWSCF v.7.2 starts on  5Jul2024 at  9:42:55

     Reading input from 1.Ni_in_ZnS.scf.q0.unrlxd.in

     Current dimensions of program PWSCF are:
     Max number of different atomic species (ntypx) = 10
     Max number of k-points (npk) =  40000
     Max angular momentum in pseudopotentials (lmaxx) =  4
     file S.pbe-n-kjpaw_psl.1.0.0.UPF: wavefunction(s)  3S 3P renormalized
     file Zn.pbe-dnl-kjpaw_psl.1.0.0.UPF: wavefunction(s)  4S 3D renormalized
     file Ni.pbe-spn-kjpaw_psl.1.0.0.UPF: wavefunction(s)  3P 3D renormalized

     K-points division:     npool     =      10
     R & G space division:  proc/nbgrp/npool/nimage =     112
     Subspace diagonalization in iterative solution of the eigenvalue problem:
     one sub-group per band group will be used

     Using Slab Decomposition

     bravais-lattice index     =            1
     lattice parameter (alat)  =      20.5686  a.u.
     unit-cell volume          =    8701.8437 (a.u.)^3
     number of atoms/cell      =           64
     number of atomic types    =            3
     number of electrons       =       582.00
     number of Kohn-Sham states=          349
     kinetic-energy cutoff     =     150.0000  Ry
     charge density cutoff     =     600.0000  Ry
     scf convergence threshold =      1.0E-08
     mixing beta               =       0.7000
     number of iterations used =            8  plain     mixing
     Exchange-correlation= SLA  PW   PBX  PBC
                           (   1   4   3   4   0   0   0)

     celldm(1)=  20.568554  celldm(2)=   0.000000  celldm(3)=   0.000000
     celldm(4)=   0.000000  celldm(5)=   0.000000  celldm(6)=   0.000000

     crystal axes: (cart. coord. in units of alat)
               a(1) = (   1.000000   0.000000   0.000000 )
               a(2) = (   0.000000   1.000000   0.000000 )
               a(3) = (   0.000000   0.000000   1.000000 )

     reciprocal axes: (cart. coord. in units 2 pi/alat)
               b(1) = (  1.000000  0.000000  0.000000 )
               b(2) = (  0.000000  1.000000  0.000000 )
               b(3) = (  0.000000  0.000000  1.000000 )

     PseudoPot. # 1 for S  read from file:
     /arf/home/amuhaymin/pseudo/S.pbe-n-kjpaw_psl.1.0.0.UPF
     MD5 check sum: fb45dfebcf3e72a4e1bd4a866ec2e262
     Pseudo is Projector augmented-wave + core cor, Zval =  6.0
     Generated using &quot;atomic&quot; code by A. Dal Corso  v.6.3
     Shape of augmentation charge: PSQ
     Using radial grid of 1151 points,  6 beta functions with:
                l(1) =   0
                l(2) =   0
                l(3) =   1
                l(4) =   1
                l(5) =   2
                l(6) =   2
     Q(r) pseudized with 0 coefficients

     PseudoPot. # 2 for Zn read from file:
     /arf/home/amuhaymin/pseudo/Zn.pbe-dnl-kjpaw_psl.1.0.0.UPF
     MD5 check sum: c608214d9520ac179f507641260889e3
     Pseudo is Projector augmented-wave + core cor, Zval = 12.0
     Generated using &quot;atomic&quot; code by A. Dal Corso  v.6.2.2
     Shape of augmentation charge: PSQ
     Using radial grid of 1201 points,  6 beta functions with:
                l(1) =   0
                l(2) =   0
                l(3) =   1
                l(4) =   1
                l(5) =   2
                l(6) =   2
     Q(r) pseudized with 0 coefficients

     PseudoPot. # 3 for Ni read from file:
     /arf/home/amuhaymin/pseudo/Ni.pbe-spn-kjpaw_psl.1.0.0.UPF
     MD5 check sum: 6e86b733589c3ad8389697b807d86aa7
     Pseudo is Projector augmented-wave + core cor, Zval = 18.0
     Generated using &quot;atomic&quot; code by A. Dal Corso  v.6.3
     Shape of augmentation charge: PSQ
     Using radial grid of 1195 points,  6 beta functions with:
                l(1) =   0
                l(2) =   0
                l(3) =   1
                l(4) =   1
                l(5) =   2
                l(6) =   2
     Q(r) pseudized with 0 coefficients

     atomic species   valence    mass     pseudopotential
        S              6.00    32.06500     S ( 1.00)
        Zn            12.00    65.38000     Zn( 1.00)
        Ni            18.00    63.54600     Ni( 1.00)

     Starting magnetic structure
     atomic species   magnetization
        S            0.000
        Zn           0.000
        Ni           0.111

     24 Sym. Ops. (no inversion) found

                                    s                        frac. trans.

      isym =  1     identity

 cryst.   s( 1) = (     1          0          0      )
                  (     0          1          0      )
                  (     0          0          1      )

 cart.    s( 1) = (  1.0000000  0.0000000  0.0000000 )
                  (  0.0000000  1.0000000  0.0000000 )
                  (  0.0000000  0.0000000  1.0000000 )

      isym =  2     180 deg rotation - cart. axis [0,0,1]

[...]

 cryst.   s( 9) = (     0          1          0      )
                  (     0          0          1      )
                  (     1          0          0      )

 cart.    s( 9) = (  0.0000000  0.0000000  1.0000000 )
                  (  1.0000000  0.0000000  0.0000000 )
                  (  0.0000000  1.0000000  0.0000000 )

[...]

 cryst.   s(10) = (     0         -1          0      )
                  (     0          0         -1      )
                  (     1          0          0      )

 cart.    s(10) = (  0.0000000  0.0000000  1.0000000 )
                  ( -1.0000000  0.0000000  0.0000000 )
                  (  0.0000000 -1.0000000  0.0000000 )

[...]

      isym = 12     120 deg rotation - cart. axis [-1,-1,1]

[...]

      isym = 13     inv. 180 deg rotation - cart. axis [1,1,0]

[...]

      isym = 24     inv.  90 deg rotation - cart. axis [1,0,0]

 cryst.   s(24) = (    -1          0          0      )
                  (     0          0         -1      )
                  (     0          1          0      )

 cart.    s(24) = ( -1.0000000  0.0000000  0.0000000 )
                  (  0.0000000  0.0000000  1.0000000 )
                  (  0.0000000 -1.0000000  0.0000000 )

     point group T_d (-43m)
     there are  5 classes
     the character table:

       E     8C3   3C2   6S4   6s_d
A_1    1.00  1.00  1.00  1.00  1.00
A_2    1.00  1.00  1.00 -1.00 -1.00
E      2.00 -1.00  2.00  0.00  0.00
T_1    3.00  0.00 -1.00  1.00 -1.00
T_2    3.00  0.00 -1.00 -1.00  1.00

     the symmetry operations in each class and the name of the first element:

     E        1
          identity
     8C3      5    7    8    6   12    9   10   11
          120 deg rotation - cart. axis [-1,-1,-1]
     3C2      2    3    4
          180 deg rotation - cart. axis [0,0,1]
     6S4     15   16   20   19   23   24
          inv.  90 deg rotation - cart. axis [0,0,-1]
     6s_d    13   14   17   18   21   22
          inv. 180 deg rotation - cart. axis [1,1,0]

   Cartesian axes

     site n.     atom                  positions (alat units)
         1           Zn  tau(   1) = (   0.0000000   0.0000000   0.0000000  )
         2           Zn  tau(   2) = (   0.0000000   0.2500000   0.2500000  )
         3           Zn  tau(   3) = (   0.2500000   0.0000000   0.2500000  )
         4           Zn  tau(   4) = (   0.2500000   0.2500000   0.0000000  )
         5           S   tau(   5) = (   0.1250000   0.3750000   0.3750000  )
         6           S   tau(   6) = (   0.1250000   0.1250000   0.1250000  )
         7           S   tau(   7) = (   0.3750000   0.3750000   0.1250000  )
         8           S   tau(   8) = (   0.3750000   0.1250000   0.3750000  )
         9           Zn  tau(   9) = (   0.0000000   0.0000000   0.5000000  )
        10           Zn  tau(  10) = (   0.0000000   0.2500000   0.7500000  )
        11           Zn  tau(  11) = (   0.2500000   0.0000000   0.7500000  )
        12           Zn  tau(  12) = (   0.2500000   0.2500000   0.5000000  )
        13           S   tau(  13) = (   0.1250000   0.3750000   0.8750000  )
        14           S   tau(  14) = (   0.1250000   0.1250000   0.6250000  )
        15           S   tau(  15) = (   0.3750000   0.3750000   0.6250000  )
        16           S   tau(  16) = (   0.3750000   0.1250000   0.8750000  )
        17           Zn  tau(  17) = (   0.0000000   0.5000000   0.0000000  )
        18           Zn  tau(  18) = (   0.0000000   0.7500000   0.2500000  )
        19           Zn  tau(  19) = (   0.2500000   0.5000000   0.2500000  )
        20           Zn  tau(  20) = (   0.2500000   0.7500000   0.0000000  )
        21           S   tau(  21) = (   0.1250000   0.8750000   0.3750000  )
        22           S   tau(  22) = (   0.1250000   0.6250000   0.1250000  )
        23           S   tau(  23) = (   0.3750000   0.8750000   0.1250000  )
        24           S   tau(  24) = (   0.3750000   0.6250000   0.3750000  )
        25           Zn  tau(  25) = (   0.0000000   0.5000000   0.5000000  )
        26           Zn  tau(  26) = (   0.0000000   0.7500000   0.7500000  )
        27           Zn  tau(  27) = (   0.2500000   0.5000000   0.7500000  )
        28           Zn  tau(  28) = (   0.2500000   0.7500000   0.5000000  )
        29           S   tau(  29) = (   0.1250000   0.8750000   0.8750000  )
        30           S   tau(  30) = (   0.1250000   0.6250000   0.6250000  )
        31           S   tau(  31) = (   0.3750000   0.8750000   0.6250000  )
        32           S   tau(  32) = (   0.3750000   0.6250000   0.8750000  )
        33           Zn  tau(  33) = (   0.5000000   0.0000000   0.0000000  )
        34           Zn  tau(  34) = (   0.5000000   0.2500000   0.2500000  )
        35           Zn  tau(  35) = (   0.7500000   0.0000000   0.2500000  )
        36           Zn  tau(  36) = (   0.7500000   0.2500000   0.0000000  )
        37           S   tau(  37) = (   0.6250000   0.3750000   0.3750000  )
        38           S   tau(  38) = (   0.6250000   0.1250000   0.1250000  )
        39           S   tau(  39) = (   0.8750000   0.3750000   0.1250000  )
        40           S   tau(  40) = (   0.8750000   0.1250000   0.3750000  )
        41           Zn  tau(  41) = (   0.5000000   0.0000000   0.5000000  )
        42           Zn  tau(  42) = (   0.5000000   0.2500000   0.7500000  )
        43           Zn  tau(  43) = (   0.7500000   0.0000000   0.7500000  )
        44           Zn  tau(  44) = (   0.7500000   0.2500000   0.5000000  )
        45           S   tau(  45) = (   0.6250000   0.3750000   0.8750000  )
        46           S   tau(  46) = (   0.6250000   0.1250000   0.6250000  )
        47           S   tau(  47) = (   0.8750000   0.3750000   0.6250000  )
        48           S   tau(  48) = (   0.8750000   0.1250000   0.8750000  )
        49           Zn  tau(  49) = (   0.5000000   0.5000000   0.0000000  )
        50           Zn  tau(  50) = (   0.5000000   0.7500000   0.2500000  )
        51           Zn  tau(  51) = (   0.7500000   0.5000000   0.2500000  )
        52           Zn  tau(  52) = (   0.7500000   0.7500000   0.0000000  )
        53           S   tau(  53) = (   0.6250000   0.8750000   0.3750000  )
        54           S   tau(  54) = (   0.6250000   0.6250000   0.1250000  )
        55           S   tau(  55) = (   0.8750000   0.8750000   0.1250000  )
[...]
     atom  31 (R=0.089)  charge=  3.9931  magn=  0.0012
     atom  32 (R=0.089)  charge=  3.9931  magn=  0.0012
     atom  33 (R=0.089)  charge= 10.1600  magn=  0.0013
     atom  34 (R=0.089)  charge= 10.1594  magn=  0.0033
     atom  35 (R=0.089)  charge= 10.1596  magn=  0.0003
     atom  36 (R=0.089)  charge= 10.1596  magn=  0.0003
     atom  37 (R=0.089)  charge=  3.9769  magn=  0.0754
     atom  38 (R=0.089)  charge=  3.9926  magn=  0.0069
     atom  39 (R=0.089)  charge=  3.9926  magn=  0.0069
     atom  40 (R=0.089)  charge=  3.9926  magn=  0.0069
     atom  41 (R=0.089)  charge= 10.1598  magn=  0.0001
     atom  42 (R=0.089)  charge= 10.1594  magn=  0.0033
     atom  43 (R=0.089)  charge= 10.1596  magn=  0.0003
     atom  44 (R=0.089)  charge= 10.1594  magn=  0.0033
     atom  45 (R=0.089)  charge=  3.9931  magn=  0.0012
     atom  46 (R=0.089)  charge=  3.9931  magn=  0.0012
     atom  47 (R=0.089)  charge=  3.9931  magn=  0.0012
     atom  48 (R=0.089)  charge=  3.9932  magn=  0.0018
     atom  49 (R=0.089)  charge= 10.1598  magn=  0.0001
     atom  50 (R=0.089)  charge= 10.1594  magn=  0.0033
     atom  51 (R=0.089)  charge= 10.1594  magn=  0.0033
     atom  52 (R=0.089)  charge= 10.1596  magn=  0.0003
     atom  53 (R=0.089)  charge=  3.9931  magn=  0.0012
     atom  54 (R=0.089)  charge=  3.9931  magn=  0.0012
     atom  55 (R=0.089)  charge=  3.9932  magn=  0.0018
     atom  56 (R=0.089)  charge=  3.9931  magn=  0.0012
     atom  57 (R=0.089)  charge= 16.2248  magn=  1.2739
     atom  58 (R=0.089)  charge= 10.1594  magn=  0.0033
     atom  59 (R=0.089)  charge= 10.1594  magn=  0.0033
     atom  60 (R=0.089)  charge= 10.1594  magn=  0.0033
     atom  61 (R=0.089)  charge=  3.9926  magn=  0.0069
     atom  62 (R=0.089)  charge=  3.9769  magn=  0.0754
     atom  63 (R=0.089)  charge=  3.9926  magn=  0.0069
     atom  64 (R=0.089)  charge=  3.9926  magn=  0.0069

     End of self-consistent calculation

 ------ SPIN UP ------------

          k = 0.0000 0.0000 0.0000 (269825 PWs)   bands (ev):

   -97.8512 -58.2335 -58.2335 -58.2335  -7.4471  -6.9132  -6.9132  -6.9102
    -6.9102  -6.9102  -6.8853  -6.5898  -6.5898  -6.5898  -6.5892  -6.5892
    -6.5892  -6.5891  -6.5891  -6.5865  -6.5865  -6.5865  -6.5808  -6.5530
    -6.5530  -6.5530  -6.5277  -6.2698  -6.2698  -6.2698  -6.2598  -6.2598
    -6.2598  -6.2430  -6.2430  -6.2430  -0.7052  -0.7052  -0.7026  -0.7004
    -0.7004  -0.7004  -0.6684  -0.6684  -0.6684  -0.6561  -0.6561  -0.6561
    -0.5552  -0.5552  -0.5552  -0.5551  -0.5551  -0.5532  -0.5532  -0.5532
    -0.5454  -0.5454  -0.5454  -0.5441  -0.5441  -0.5441  -0.5423  -0.5404
    -0.5404  -0.5391  -0.5391  -0.5391  -0.5344  -0.5301  -0.5301  -0.5301
    -0.5264  -0.5264  -0.5264  -0.5225  -0.5225  -0.5225  -0.5211  -0.5211
    -0.5211  -0.5169  -0.5169  -0.5156  -0.5156  -0.5156  -0.5107  -0.5107
    -0.5107  -0.5100  -0.5098  -0.5098  -0.5098  -0.4852  -0.4852  -0.4342
    -0.4342  -0.4342  -0.3922  -0.3922  -0.3922  -0.3871  -0.3871  -0.3871
    -0.3858  -0.3858  -0.3858  -0.3838  -0.3838  -0.3838  -0.3760  -0.3760
    -0.3552  -0.3486  -0.3486  -0.3486  -0.3325  -0.3325  -0.3325  -0.2469
    -0.2469  -0.2469  -0.2376  -0.2376  -0.2376  -0.2350  -0.2350  -0.2319
    -0.2207  -0.2207  -0.2202  -0.2194  -0.2194  -0.2194  -0.2192  -0.2142
    -0.2142  -0.2006  -0.2006  -0.2006  -0.1973  -0.1962  -0.1962  -0.1962
    -0.1952  -0.1952  -0.1952  -0.1867  -0.1867  -0.1706  -0.1706  -0.1591
    -0.1591  -0.1591  -0.1516  -0.1516  -0.1516  -0.1495  -0.1495  -0.1469
    -0.1462  -0.1462  -0.1462  -0.1410  -0.1410  -0.1410  -0.1369  -0.1369
    -0.1226  -0.1226  -0.1226  -0.1216  -0.1216  -0.1216  -0.1158  -0.1119
    -0.1119  -0.1087  -0.0215  -0.0215  -0.0215   0.0140   0.0229   0.0229
     0.0229   0.1582   0.1582   0.1582   0.1976   0.1976   0.1976   0.3989
     0.3989   0.3989   0.4390   1.0353   1.0353   1.0632   1.0632   1.0632
     1.0702   1.0702   1.0711   1.2450   1.5373   1.5373   1.5373   1.6729
     1.6729   1.6751   1.6751   1.6751   1.6849   1.6849   1.6849   1.9039
     2.5938   2.5938   2.5938   2.7683   2.7683   2.9000   2.9000   2.9000
     2.9123   2.9123   2.9123   2.9230   2.9516   2.9516   2.9516   2.9927
     2.9927   3.0789   3.0828   3.0828   3.0838   3.0838   3.0838   3.1248
     3.1248   3.1248   3.1471   3.1471   3.1471   3.2129   3.3470   3.3470
     3.3470   3.4064   3.4064   3.4064   3.6507   3.6507   3.6507   4.1462
     4.1462   4.3594   4.3594   4.3594   4.3611   4.3611   4.3611   4.3759
     4.3759   4.3759   4.4774   4.4774   4.4774   4.6784   4.6784   4.6784
     4.6795   4.6795   4.6795   4.6804   4.6949   4.6949   4.6949   4.6978
     4.6978   4.7173   4.7173   4.7173   4.9639   4.9639   5.1294   5.1294
     5.1294   5.6712   5.6712   5.6712   7.5910   8.8213   8.8213   8.8213
     8.8934   9.0325   9.0325   9.0325   9.6410   9.6410   9.6579   9.9893
     9.9893   9.9893   9.9969   9.9969  10.0303  10.1238  10.1238  10.1448
    10.1448  10.1448  10.1607  10.3184  10.3184  10.3184  10.3188  10.3188
    10.3188  10.3255  10.3255  10.3534  10.3534  10.3534  10.7324  11.2502
    11.2502  11.2502  11.2940  11.2940  11.2940  11.4765  11.4765  11.4765
    11.4836  11.4836  11.7925  11.9587  11.9587  11.9588  12.1913  12.1914
    12.1914  12.1923  12.1924  12.1926  12.2127

     occupation numbers
     1.0000   1.0000   1.0000   1.0000   1.0000   1.0000   1.0000   1.0000
     1.0000   1.0000   1.0000   1.0000   1.0000   1.0000   1.0000   1.0000
     1.0000   1.0000   1.0000   1.0000   1.0000   1.0000   1.0000   1.0000
     1.0000   1.0000   1.0000   1.0000   1.0000   1.0000   1.0000   1.0000
     1.0000   1.0000   1.0000   1.0000   1.0000   1.0000   1.0000   1.0000
     1.0000   1.0000   1.0000   1.0000   1.0000   1.0000   1.0000   1.0000
     1.0000   1.0000   1.0000   1.0000   1.0000   1.0000   1.0000   1.0000
     1.0000   1.0000   1.0000   1.0000   1.0000   1.0000   1.0000   1.0000
     1.0000   1.0000   1.0000   1.0000   1.0000   1.0000   1.0000   1.0000
     1.0000   1.0000   1.0000   1.0000   1.0000   1.0000   1.0000   1.0000
     1.0000   1.0000   1.0000   1.0000   1.0000   1.0000   1.0000   1.0000
     1.0000   1.0000   1.0000   1.0000   1.0000   1.0000   1.0000   1.0000
     1.0000   1.0000   1.0000   1.0000   1.0000   1.0000   1.0000   1.0000
     1.0000   1.0000   1.0000   1.0000   1.0000   1.0000   1.0000   1.0000
     1.0000   1.0000   1.0000   1.0000   1.0000   1.0000   1.0000   1.0000
     1.0000   1.0000   1.0000   1.0000   1.0000   1.0000   1.0000   1.0000
     1.0000   1.0000   1.0000   1.0000   1.0000   1.0000   1.0000   1.0000
     1.0000   1.0000   1.0000   1.0000   1.0000   1.0000   1.0000   1.0000
     1.0000   1.0000   1.0000   1.0000   1.0000   1.0000   1.0000   1.0000
     1.0000   1.0000   1.0000   1.0000   1.0000   1.0000   1.0000   1.0000
     1.0000   1.0000   1.0000   1.0000   1.0000   1.0000   1.0000   1.0000
     1.0000   1.0000   1.0000   1.0000   1.0000   1.0000   1.0000   1.0000
     1.0000   1.0000   1.0000   1.0000   1.0000   1.0000   1.0000   1.0000
     1.0000   1.0000   1.0000   1.0000   1.0000   1.0000   1.0000   1.0000
     1.0000   1.0000   1.0000   1.0000   1.0000   1.0000   1.0000   1.0000
     1.0000   1.0000   1.0000   1.0000   1.0000   1.0000   1.0000   1.0000
     1.0000   1.0000   1.0000   1.0000   1.0000   1.0000   1.0000   1.0000
     1.0000   1.0000   1.0000   1.0000   1.0000   1.0000   1.0000   1.0000
     1.0000   1.0000   1.0000   1.0000   1.0000   1.0000   1.0000   1.0000
     1.0000   1.0000   1.0000   1.0000   1.0000   1.0000   1.0000   1.0000
     1.0000   1.0000   1.0000   1.0000   1.0000   1.0000   1.0000   1.0000
     1.0000   1.0000   1.0000   1.0000   1.0000   1.0000   1.0000   1.0000
     1.0000   1.0000   1.0000   1.0000   1.0000   1.0000   1.0000   1.0000
     1.0000   1.0000   1.0000   1.0000   1.0000   1.0000   1.0000   1.0000
     1.0000   1.0000   1.0000   1.0000   1.0000   1.0000   1.0000   1.0000
     1.0000   1.0000   1.0000   1.0000   1.0000   1.0000   1.0000   1.0000
     1.0000   1.0000   1.0000   1.0000   0.0000   0.0000   0.0000   0.0000
     0.0000   0.0000   0.0000   0.0000   0.0000   0.0000   0.0000   0.0000
     0.0000   0.0000   0.0000   0.0000   0.0000   0.0000   0.0000   0.0000
     0.0000   0.0000   0.0000   0.0000   0.0000   0.0000   0.0000   0.0000
     0.0000   0.0000   0.0000   0.0000   0.0000   0.0000   0.0000   0.0000
     0.0000   0.0000   0.0000   0.0000   0.0000   0.0000   0.0000   0.0000
     0.0000   0.0000   0.0000   0.0000   0.0000   0.0000   0.0000   0.0000
     0.0000   0.0000   0.0000   0.0000   0.0000

[...]

          k =-0.5000-0.5000-0.5000 (269968 PWs)   bands (ev):

[...]

 ------ SPIN DOWN ----------

[...]

          k = 0.2500-0.5000-0.5000 (269956 PWs)   bands (ev):

[...]

          k =-0.5000-0.5000-0.5000 (269968 PWs)   bands (ev):

   -96.3220 -56.7391 -56.7391 -56.7391  -7.0516  -7.0468  -7.0468  -7.0468
    -7.0282  -7.0282  -7.0282  -6.9419  -6.4303  -6.4303  -6.4303  -6.4287
    -6.4287  -6.4287  -6.4287  -6.4287  -6.4275  -6.4251  -6.4251  -6.4251
    -6.4162  -6.4162  -6.4162  -6.4136  -6.4136  -6.4136  -6.4132  -6.4132
    -6.3298  -6.2963  -6.2963  -6.2963  -0.6167  -0.6138  -0.6138  -0.6138
    -0.6114  -0.6114  -0.6114  -0.6030  -0.6030  -0.6030  -0.6023  -0.6023
    -0.6006  -0.5979  -0.5979  -0.5979  -0.5943  -0.5943  -0.5943  -0.5938
    -0.5938  -0.5857  -0.5833  -0.5833  -0.5833  -0.5825  -0.5825  -0.5819
    -0.5819  -0.5819  -0.5795  -0.5795  -0.5795  -0.5793  -0.5793  -0.5793
    -0.5748  -0.5748  -0.5748  -0.5708  -0.5708  -0.5708  -0.5364  -0.5192
    -0.5192  -0.5147  -0.5147  -0.5147  -0.4500  -0.4495  -0.4495  -0.4495
    -0.4446  -0.4446  -0.4446  -0.4445  -0.4445  -0.4445  -0.4439  -0.4439
    -0.4395  -0.4395  -0.4395  -0.4375  -0.4375  -0.4375  -0.4354  -0.4247
    -0.4247  -0.3686  -0.3686  -0.3686  -0.3347  -0.3347  -0.3347  -0.3340
    -0.3340  -0.3340  -0.3338  -0.3338  -0.3310  -0.3310  -0.3310  -0.3289
    -0.3280  -0.3280  -0.3280  -0.3277  -0.3277  -0.3277  -0.3016  -0.2970
    -0.2970  -0.1876  -0.1876  -0.1876  -0.1872  -0.1872  -0.1844  -0.1844
    -0.1844  -0.1793  -0.1793  -0.1793  -0.1757  -0.1757  -0.1757  -0.1608
    -0.1608  -0.1608  -0.1544  -0.1544  -0.1481  -0.1481  -0.1481  -0.1468
    -0.1468  -0.1451  -0.1399  -0.1399  -0.1399  -0.1378  -0.1378  -0.1378
    -0.1362  -0.1362  -0.1362  -0.1319  -0.1313  -0.1313  -0.1313  -0.0908
    -0.0908  -0.0908  -0.0348  -0.0348  -0.0276  -0.0276  -0.0276  -0.0241
    -0.0241  -0.0241  -0.0236  -0.0222  -0.0222  -0.0219  -0.0219  -0.0219
    -0.0186  -0.0186  -0.0186  -0.0157  -0.0157  -0.0157   0.0179   1.1001
     1.1001   1.1001   1.1472   1.1472   1.1670   1.1670   1.1670   1.1690
     1.1700   1.1700   1.1700   1.1729   1.1729   1.1771   1.1771   1.1771
     1.1880   1.1880   1.1880   1.2142   1.2142   1.2142   1.6563   2.6406
     2.6406   2.6406   2.7749   2.7881   2.7881   2.7881   2.8904   3.0730
     3.0730   3.1379   3.1379   3.1379   3.2298   3.2298   3.2298   3.2300
     3.2310   3.2310   3.2349   3.2349   3.2349   3.2353   3.2353   3.2353
     3.2379   3.2379   3.2379   3.2910   3.2910   3.2910   3.3865   3.8112
     3.8112   3.8112   3.9383   3.9383   4.0066   4.0094   4.0094   4.0094
     4.0131   4.0131   4.0145   4.0145   4.0145   4.0204   4.0204   4.0204
     4.0220   4.0396   4.0396   4.0396   4.0439   4.0439   4.0439   4.7224
     4.7224   4.7224   4.8970   4.8970   5.1031   5.1031   5.1031   5.1031
     5.1031   5.1128   5.1128   5.1128   5.1151   5.1151   5.1151   5.3858
     5.3858   6.3329   6.3329   6.3329   8.9585   8.9622   8.9622   8.9622
     8.9715   8.9715   8.9715   9.1270   9.8646   9.8646   9.8646   9.8713
     9.8713   9.8713   9.8721   9.8721   9.8735   9.8735   9.8735   9.8769
     9.8800   9.8800   9.8800   9.8816   9.8816   9.8816   9.9649   9.9649
    10.0063  10.0063  10.0063  10.3108  11.4728  11.4728  11.4728  11.4753
    11.4753  11.4753  11.4774  11.4774  11.4791  11.4792  11.4792  11.4831
    11.4866  11.4867  11.4867  11.4874  11.4874  11.5012  11.5012  11.5012
    11.6058  11.6058  11.6058  12.0560  12.4472

     occupation numbers
     1.0000   1.0000   1.0000   1.0000   1.0000   1.0000   1.0000   1.0000
     1.0000   1.0000   1.0000   1.0000   1.0000   1.0000   1.0000   1.0000
     1.0000   1.0000   1.0000   1.0000   1.0000   1.0000   1.0000   1.0000
     1.0000   1.0000   1.0000   1.0000   1.0000   1.0000   1.0000   1.0000
     1.0000   1.0000   1.0000   1.0000   1.0000   1.0000   1.0000   1.0000
     1.0000   1.0000   1.0000   1.0000   1.0000   1.0000   1.0000   1.0000
     1.0000   1.0000   1.0000   1.0000   1.0000   1.0000   1.0000   1.0000
     1.0000   1.0000   1.0000   1.0000   1.0000   1.0000   1.0000   1.0000
     1.0000   1.0000   1.0000   1.0000   1.0000   1.0000   1.0000   1.0000
     1.0000   1.0000   1.0000   1.0000   1.0000   1.0000   1.0000   1.0000
     1.0000   1.0000   1.0000   1.0000   1.0000   1.0000   1.0000   1.0000
     1.0000   1.0000   1.0000   1.0000   1.0000   1.0000   1.0000   1.0000
     1.0000   1.0000   1.0000   1.0000   1.0000   1.0000   1.0000   1.0000
     1.0000   1.0000   1.0000   1.0000   1.0000   1.0000   1.0000   1.0000
     1.0000   1.0000   1.0000   1.0000   1.0000   1.0000   1.0000   1.0000
     1.0000   1.0000   1.0000   1.0000   1.0000   1.0000   1.0000   1.0000
     1.0000   1.0000   1.0000   1.0000   1.0000   1.0000   1.0000   1.0000
     1.0000   1.0000   1.0000   1.0000   1.0000   1.0000   1.0000   1.0000
     1.0000   1.0000   1.0000   1.0000   1.0000   1.0000   1.0000   1.0000
     1.0000   1.0000   1.0000   1.0000   1.0000   1.0000   1.0000   1.0000
     1.0000   1.0000   1.0000   1.0000   1.0000   1.0000   1.0000   1.0000
     1.0000   1.0000   1.0000   1.0000   1.0000   1.0000   1.0000   1.0000
     1.0000   1.0000   1.0000   1.0000   1.0000   1.0000   1.0000   1.0000
     1.0000   1.0000   1.0000   1.0000   1.0000   1.0000   1.0000   1.0000
     1.0000   1.0000   1.0000   1.0000   1.0000   1.0000   1.0000   1.0000
     1.0000   1.0000   1.0000   1.0000   1.0000   1.0000   1.0000   1.0000
     1.0000   1.0000   1.0000   1.0000   1.0000   1.0000   1.0000   1.0000
     1.0000   1.0000   1.0000   1.0000   1.0000   1.0000   1.0000   1.0000
     1.0000   1.0000   1.0000   1.0000   1.0000   1.0000   1.0000   1.0000
     1.0000   1.0000   1.0000   1.0000   1.0000   1.0000   1.0000   1.0000
     1.0000   1.0000   1.0000   1.0000   1.0000   1.0000   1.0000   1.0000
     1.0000   1.0000   1.0000   1.0000   1.0000   1.0000   1.0000   1.0000
     1.0000   1.0000   1.0000   1.0000   1.0000   1.0000   1.0000   1.0000
     1.0000   1.0000   1.0000   1.0000   1.0000   1.0000   1.0000   1.0000
     1.0000   1.0000   1.0000   1.0000   1.0000   1.0000   1.0000   1.0000
     1.0000   1.0000   1.0000   1.0000   1.0000   1.0000   1.0000   1.0000
     1.0000   0.0000   0.0000   0.0000   0.0000   0.0000   0.0000   0.0000
     0.0000   0.0000   0.0000   0.0000   0.0000   0.0000   0.0000   0.0000
     0.0000   0.0000   0.0000   0.0000   0.0000   0.0000   0.0000   0.0000
     0.0000   0.0000   0.0000   0.0000   0.0000   0.0000   0.0000   0.0000
     0.0000   0.0000   0.0000   0.0000   0.0000   0.0000   0.0000   0.0000
     0.0000   0.0000   0.0000   0.0000   0.0000   0.0000   0.0000   0.0000
     0.0000   0.0000   0.0000   0.0000   0.0000   0.0000   0.0000   0.0000
     0.0000   0.0000   0.0000   0.0000   0.0000

     the Fermi energy is     6.2739 ev

!    total energy              =  -10109.67681237 Ry
     total all-electron energy =   -139949.652485 Ry
     estimated scf accuracy    <          6.1E-09 Ry
     smearing contrib. (-TS)   =      -0.00015191 Ry
     internal energy E=F+TS    =  -10109.67666046 Ry

     The total energy is F=E-TS. E is the sum of the following terms:
     one-electron contribution =   -2989.46007511 Ry
     hartree contribution      =    2068.79867193 Ry
     xc contribution           =   -1661.67378677 Ry
     ewald contribution        =   -3001.97646250 Ry
     one-center paw contrib.   =   -4525.36500802 Ry
      -> PAW hartree energy AE =     123.27612700 Ry
      -> PAW hartree energy PS =    -122.63428509 Ry
      -> PAW xc energy AE      =    -143.20928375 Ry
      -> PAW xc energy PS      =      47.14788881 Ry
      -> total E_H with PAW    =    2069.44051384 Ry
      -> total E_XC with PAW   =   -1757.73518172 Ry

     total magnetization       =     2.00 Bohr mag/cell
     absolute magnetization    =     2.04 Bohr mag/cell

     convergence has been achieved in  17 iterations

     Writing all to output data dir ./out/Ni_q0_unrlxd.save/

     General routines

     Parallel routines

     PAW routines

   This run was terminated on:   9:46:34   5Jul2024

   JOB DONE.