     Program PWSCF v.7.2 starts on  7Jul2024 at  4: 9:55

     Reading input from 2.Co_vac_in_ZnS.scf.qp1.in

     Current dimensions of program PWSCF are:
     Max number of different atomic species (ntypx) = 10
     Max number of k-points (npk) =  40000
     Max angular momentum in pseudopotentials (lmaxx) =  4
     file S.pbe-n-kjpaw_psl.1.0.0.UPF: wavefunction(s)  3S 3P renormalized
     file Zn.pbe-dnl-kjpaw_psl.1.0.0.UPF: wavefunction(s)  4S 3D renormalized
     file Co.pbe-spn-kjpaw_psl.0.3.1.UPF: wavefunction(s)  3P 3D renormalized

     K-points division:     npool     =       7
     R & G space division:  proc/nbgrp/npool/nimage =     112
     Subspace diagonalization in iterative solution of the eigenvalue problem:
     one sub-group per band group will be used

     Using Slab Decomposition

     bravais-lattice index     =            1
     lattice parameter (alat)  =      20.5686  a.u.
     unit-cell volume          =    8701.8437 (a.u.)^3
     number of atoms/cell      =           63
     number of atomic types    =            3
     number of electrons       =       574.00
     number of Kohn-Sham states=          344
     kinetic-energy cutoff     =     150.0000  Ry
     charge density cutoff     =     600.0000  Ry
     scf convergence threshold =      1.0E-08
     mixing beta               =       0.7000
     number of iterations used =            8  plain     mixing
     Exchange-correlation= SLA  PW   PBX  PBC
                           (   1   4   3   4   0   0   0)

     celldm(1)=  20.568554  celldm(2)=   0.000000  celldm(3)=   0.000000
     celldm(4)=   0.000000  celldm(5)=   0.000000  celldm(6)=   0.000000

     crystal axes: (cart. coord. in units of alat)
               a(1) = (   1.000000   0.000000   0.000000 )
               a(2) = (   0.000000   1.000000   0.000000 )
               a(3) = (   0.000000   0.000000   1.000000 )

     reciprocal axes: (cart. coord. in units 2 pi/alat)
               b(1) = (  1.000000  0.000000  0.000000 )
               b(2) = (  0.000000  1.000000  0.000000 )
               b(3) = (  0.000000  0.000000  1.000000 )

     PseudoPot. # 1 for S  read from file:
     /arf/home/amuhaymin/pseudo/S.pbe-n-kjpaw_psl.1.0.0.UPF
     MD5 check sum: fb45dfebcf3e72a4e1bd4a866ec2e262
     Pseudo is Projector augmented-wave + core cor, Zval =  6.0
     Generated using &quot;atomic&quot; code by A. Dal Corso  v.6.3
     Shape of augmentation charge: PSQ
     Using radial grid of 1151 points,  6 beta functions with:
                l(1) =   0
                l(2) =   0
                l(3) =   1
                l(4) =   1
                l(5) =   2
                l(6) =   2
     Q(r) pseudized with 0 coefficients

     PseudoPot. # 2 for Zn read from file:
     /arf/home/amuhaymin/pseudo/Zn.pbe-dnl-kjpaw_psl.1.0.0.UPF
     MD5 check sum: c608214d9520ac179f507641260889e3
     Pseudo is Projector augmented-wave + core cor, Zval = 12.0
     Generated using &quot;atomic&quot; code by A. Dal Corso  v.6.2.2
     Shape of augmentation charge: PSQ
     Using radial grid of 1201 points,  6 beta functions with:
                l(1) =   0
                l(2) =   0
                l(3) =   1
                l(4) =   1
                l(5) =   2
                l(6) =   2
     Q(r) pseudized with 0 coefficients

     PseudoPot. # 3 for Co read from file:
     /arf/home/amuhaymin/pseudo/Co.pbe-spn-kjpaw_psl.0.3.1.UPF
     MD5 check sum: b0a1ad65bf214e88c1f3d33b20c7d919
     Pseudo is Projector augmented-wave + core cor, Zval = 17.0
     Generated using &quot;atomic&quot; code by A. Dal Corso  v.6.2.2
     Shape of augmentation charge: PSQ
     Using radial grid of 1193 points,  6 beta functions with:
                l(1) =   0
                l(2) =   0
                l(3) =   1
                l(4) =   1
                l(5) =   2
                l(6) =   2
     Q(r) pseudized with 0 coefficients

     atomic species   valence    mass     pseudopotential
        S              6.00    32.06500     S ( 1.00)
        Zn            12.00    65.38000     Zn( 1.00)
        Co            17.00    63.54600     Co( 1.00)

     Starting magnetic structure
     atomic species   magnetization
        S            0.000
        Zn           0.000
        Co           0.235

      6 Sym. Ops. (no inversion) found

                                    s                        frac. trans.

      isym =  1     identity

 cryst.   s( 1) = (     1          0          0      )
                  (     0          1          0      )
                  (     0          0          1      )

 cart.    s( 1) = (  1.0000000  0.0000000  0.0000000 )
                  (  0.0000000  1.0000000  0.0000000 )
                  (  0.0000000  0.0000000  1.0000000 )

      isym =  2     120 deg rotation - cart. axis [-1,-1,-1]

[...]

      isym =  3     120 deg rotation - cart. axis [1,1,1]

[...]

      isym =  4     inv. 180 deg rotation - cart. axis [1,-1,0]

[...]

      isym =  6     inv. 180 deg rotation - cart. axis [0,1,-1]

 cryst.   s( 6) = (     1          0          0      )
                  (     0          0          1      )
                  (     0          1          0      )

 cart.    s( 6) = (  1.0000000  0.0000000  0.0000000 )
                  (  0.0000000  0.0000000  1.0000000 )
                  (  0.0000000  1.0000000  0.0000000 )

     point group C_3v (3m)
     there are  3 classes
     the character table:

       E     2C3   3s_v
A_1    1.00  1.00  1.00
A_2    1.00  1.00 -1.00
E      2.00 -1.00  0.00

     the symmetry operations in each class and the name of the first element:

     E        1
          identity
     2C3      2    3
          120 deg rotation - cart. axis [-1,-1,-1]
     3s_v     4    5    6
          inv. 180 deg rotation - cart. axis [1,-1,0]

   Cartesian axes

     site n.     atom                  positions (alat units)
         1           Zn  tau(   1) = (   0.0001122   0.0001122   0.0001122  )
         2           Zn  tau(   2) = (   0.0001442   0.2496628   0.2496628  )
         3           Zn  tau(   3) = (   0.2496628   0.0001442   0.2496628  )
         4           Zn  tau(   4) = (   0.2496628   0.2496628   0.0001442  )
         5           S   tau(   5) = (   0.1245559   0.3745487   0.3745487  )
         6           S   tau(   6) = (   0.1246764   0.1246764   0.1246764  )
         7           S   tau(   7) = (   0.3745487   0.3745487   0.1245559  )
         8           S   tau(   8) = (   0.3745487   0.1245559   0.3745487  )
         9           Zn  tau(   9) = (   0.0022835   0.0022835   0.4986853  )
        10           Zn  tau(  10) = (   0.0023997   0.2474620   0.7499908  )
        11           Zn  tau(  11) = (   0.2474620   0.0023997   0.7499908  )
        12           Zn  tau(  12) = (   0.2524827   0.2524827   0.4995461  )
        13           S   tau(  13) = (   0.1247681   0.3746802   0.8745649  )
        14           S   tau(  14) = (   0.1257710   0.1257710   0.6235254  )
        15           S   tau(  15) = (   0.3773777   0.3773777   0.6221813  )
        16           S   tau(  16) = (   0.3746802   0.1247681   0.8745649  )
        17           Zn  tau(  17) = (   0.0022835   0.4986853   0.0022835  )
        18           Zn  tau(  18) = (   0.0023997   0.7499908   0.2474620  )
        19           Zn  tau(  19) = (   0.2524827   0.4995461   0.2524827  )
        20           Zn  tau(  20) = (   0.2474620   0.7499908   0.0023997  )
        21           S   tau(  21) = (   0.1247681   0.8745649   0.3746802  )
        22           S   tau(  22) = (   0.1257710   0.6235254   0.1257710  )
        23           S   tau(  23) = (   0.3746802   0.8745649   0.1247681  )
        24           S   tau(  24) = (   0.3773777   0.6221813   0.3773777  )
        25           Zn  tau(  25) = (   0.0035780   0.5002371   0.5002371  )
        26           Zn  tau(  26) = (   0.0032808   0.7486777   0.7486777  )
        27           Zn  tau(  27) = (   0.2499037   0.4961869   0.7462466  )
        28           Zn  tau(  28) = (   0.2499037   0.7462466   0.4961869  )
        29           S   tau(  29) = (   0.1246284   0.8746328   0.8746328  )
        30           S   tau(  30) = (   0.1259487   0.6246984   0.6246984  )
        31           S   tau(  31) = (   0.3727047   0.8764716   0.6220581  )
        32           S   tau(  32) = (   0.3727047   0.6220581   0.8764716  )
        33           Zn  tau(  33) = (   0.4986853   0.0022835   0.0022835  )
        34           Zn  tau(  34) = (   0.4995461   0.2524827   0.2524827  )
        35           Zn  tau(  35) = (   0.7499908   0.0023997   0.2474620  )
        36           Zn  tau(  36) = (   0.7499908   0.2474620   0.0023997  )
        37           S   tau(  37) = (   0.6221813   0.3773777   0.3773777  )
        38           S   tau(  38) = (   0.6235254   0.1257710   0.1257710  )
        39           S   tau(  39) = (   0.8745649   0.3746802   0.1247681  )
        40           S   tau(  40) = (   0.8745649   0.1247681   0.3746802  )
        41           Zn  tau(  41) = (   0.5002371   0.0035780   0.5002371  )
        42           Zn  tau(  42) = (   0.4961869   0.2499037   0.7462466  )
        43           Zn  tau(  43) = (   0.7486777   0.0032808   0.7486777  )
        44           Zn  tau(  44) = (   0.7462466   0.2499037   0.4961869  )
        45           S   tau(  45) = (   0.6220581   0.3727047   0.8764716  )
        46           S   tau(  46) = (   0.6246984   0.1259487   0.6246984  )
        47           S   tau(  47) = (   0.8764716   0.3727047   0.6220581  )
        48           S   tau(  48) = (   0.8746328   0.1246284   0.8746328  )
        49           Zn  tau(  49) = (   0.5002371   0.5002371   0.0035780  )
        50           Zn  tau(  50) = (   0.4961869   0.7462466   0.2499037  )
        51           Zn  tau(  51) = (   0.7462466   0.4961869   0.2499037  )
        52           Zn  tau(  52) = (   0.7486777   0.7486777   0.0032808  )
        53           S   tau(  53) = (   0.6220581   0.8764716   0.3727047  )
        54           S   tau(  54) = (   0.6246984   0.6246984   0.1259487  )
        55           S   tau(  55) = (   0.8746328   0.8746328   0.1246284  )
        56           S   tau(  56) = (   0.8764716   0.6220581   0.3727047  )
        57           Co  tau(  57) = (   0.4853704   0.4853704   0.4853704  )
        58           Zn  tau(  58) = (   0.4701193   0.7774579   0.7774579  )
        59           Zn  tau(  59) = (   0.7774579   0.4701193   0.7774579  )
        60           Zn  tau(  60) = (   0.7774579   0.7774579   0.4701193  )
        61           S   tau(  61) = (   0.6265895   0.8757611   0.8757611  )
        62           S   tau(  62) = (   0.8757611   0.8757611   0.6265895  )
        63           S   tau(  63) = (   0.8757611   0.6265895   0.8757611  )

   Crystallographic axes

     site n.     atom                  positions (cryst. coord.)
         1           Zn  tau(   1) = (  0.0001122  0.0001122  0.0001122  )
         2           Zn  tau(   2) = (  0.0001442  0.2496628  0.2496628  )
         3           Zn  tau(   3) = (  0.2496628  0.0001442  0.2496628  )
         4           Zn  tau(   4) = (  0.2496628  0.2496628  0.0001442  )
[...]
     atom  26 (R=0.086)  charge=  9.9985  magn=  0.0001
     atom  27 (R=0.086)  charge=  9.9996  magn=  0.0031
     atom  28 (R=0.086)  charge=  9.9996  magn=  0.0031
     atom  29 (R=0.085)  charge=  3.6160  magn= -0.0000
     atom  30 (R=0.085)  charge=  3.6235  magn= -0.0000
     atom  31 (R=0.085)  charge=  3.6181  magn= -0.0008
     atom  32 (R=0.085)  charge=  3.6181  magn= -0.0008
     atom  33 (R=0.086)  charge=  9.9972  magn=  0.0004
     atom  34 (R=0.086)  charge=  9.9973  magn= -0.0002
     atom  35 (R=0.086)  charge=  9.9983  magn= -0.0003
     atom  36 (R=0.086)  charge=  9.9983  magn= -0.0003
     atom  37 (R=0.085)  charge=  3.6317  magn=  0.0189
     atom  38 (R=0.085)  charge=  3.6213  magn= -0.0008
     atom  39 (R=0.085)  charge=  3.6163  magn=  0.0028
     atom  40 (R=0.085)  charge=  3.6163  magn=  0.0028
     atom  41 (R=0.086)  charge=  9.9992  magn= -0.0000
     atom  42 (R=0.086)  charge=  9.9996  magn=  0.0031
     atom  43 (R=0.086)  charge=  9.9985  magn=  0.0001
     atom  44 (R=0.086)  charge=  9.9996  magn=  0.0031
     atom  45 (R=0.085)  charge=  3.6181  magn= -0.0008
     atom  46 (R=0.085)  charge=  3.6235  magn= -0.0000
     atom  47 (R=0.085)  charge=  3.6181  magn= -0.0008
     atom  48 (R=0.085)  charge=  3.6160  magn= -0.0000
     atom  49 (R=0.086)  charge=  9.9992  magn= -0.0000
     atom  50 (R=0.086)  charge=  9.9996  magn=  0.0031
     atom  51 (R=0.086)  charge=  9.9996  magn=  0.0031
     atom  52 (R=0.086)  charge=  9.9985  magn=  0.0001
     atom  53 (R=0.085)  charge=  3.6181  magn= -0.0008
     atom  54 (R=0.085)  charge=  3.6235  magn= -0.0000
     atom  55 (R=0.085)  charge=  3.6160  magn= -0.0000
     atom  56 (R=0.085)  charge=  3.6181  magn= -0.0008
     atom  57 (R=0.085)  charge= 14.9918  magn=  1.6953
     atom  58 (R=0.086)  charge= 10.0127  magn= -0.0005
     atom  59 (R=0.086)  charge= 10.0127  magn= -0.0005
     atom  60 (R=0.086)  charge= 10.0127  magn= -0.0005
     atom  61 (R=0.085)  charge=  3.6169  magn= -0.0003
     atom  62 (R=0.085)  charge=  3.6169  magn= -0.0003
     atom  63 (R=0.085)  charge=  3.6169  magn= -0.0003

     End of self-consistent calculation

 ------ SPIN UP ------------

          k = 0.0000 0.0000 0.0000 (269825 PWs)   bands (ev):

   -88.2770 -51.7791 -51.7791 -51.2058  -7.6215  -7.1579  -7.1579  -7.0998
    -7.0998  -7.0950  -7.0008  -6.8898  -6.8898  -6.8316  -6.8262  -6.7787
    -6.7787  -6.7650  -6.7650  -6.7265  -6.7195  -6.7195  -6.6931  -6.6695
    -6.6695  -6.6635  -6.5379  -6.4992  -6.4992  -6.4403  -6.3972  -6.3972
    -6.3764  -6.3472  -6.3472  -1.1157  -1.1157  -1.1147  -1.0977  -1.0922
    -1.0922  -1.0866  -1.0866  -1.0743  -1.0028  -0.9857  -0.9857  -0.9642
    -0.9642  -0.9530  -0.8364  -0.8364  -0.8268  -0.7813  -0.7813  -0.7794
    -0.7609  -0.7609  -0.7431  -0.7388  -0.7388  -0.7273  -0.7221  -0.7221
    -0.7182  -0.7099  -0.7099  -0.7080  -0.6950  -0.6950  -0.6840  -0.6840
    -0.6766  -0.6757  -0.6692  -0.6692  -0.6611  -0.6589  -0.6589  -0.6545
    -0.6485  -0.6449  -0.6449  -0.6404  -0.6349  -0.6326  -0.6326  -0.6303
    -0.6259  -0.6259  -0.6185  -0.6185  -0.6133  -0.6035  -0.6035  -0.5991
    -0.5884  -0.5884  -0.5850  -0.5800  -0.5800  -0.5451  -0.5451  -0.5423
    -0.5385  -0.5352  -0.5352  -0.5250  -0.5241  -0.5110  -0.5110  -0.5085
    -0.5085  -0.4870  -0.4870  -0.4820  -0.4795  -0.4795  -0.4692  -0.4692
    -0.4628  -0.4578  -0.4578  -0.4468  -0.4150  -0.3904  -0.3904  -0.3903
    -0.3850  -0.3850  -0.3792  -0.3722  -0.3722  -0.3609  -0.3609  -0.3530
    -0.3505  -0.3431  -0.3431  -0.3400  -0.3368  -0.3368  -0.3243  -0.3187
    -0.3187  -0.3165  -0.3145  -0.3145  -0.3089  -0.3057  -0.3057  -0.3045
    -0.2944  -0.2944  -0.2764  -0.2764  -0.2736  -0.2653  -0.2653  -0.2606
    -0.2548  -0.2548  -0.2541  -0.2541  -0.2472  -0.2436  -0.2422  -0.2422
    -0.2231  -0.2215  -0.2215  -0.2053  -0.1873  -0.1873  -0.1792  -0.1771
    -0.1771  -0.1618  -0.1343  -0.1343  -0.1259  -0.1259  -0.1213  -0.0925
     0.0222   0.0305   0.0305   0.0409   0.0714   0.0714   0.1102   0.3191
     0.3329   0.3329   0.8808   0.8808   0.9246   0.9256   0.9726   0.9726
     1.0177   1.0177   1.1283   1.3678   1.3682   1.3682   1.4791   1.4791
     1.5349   1.5378   1.5684   1.5684   1.6749   1.6749   1.9629   2.5321
     2.5321   2.6409   2.6448   2.6448   2.6644   2.6771   2.6771   2.7448
     2.7694   2.7694   2.7864   2.8231   2.8305   2.8305   2.8881   2.8881
     2.9124   2.9235   2.9235   2.9552   2.9552   2.9771   2.9843   3.0158
     3.0158   3.0458   3.1544   3.1544   3.1774   3.2657   3.2657   3.2910
     3.6063   3.6063   3.6882   3.7935   3.7935   4.1052   4.1370   4.1370
     4.1706   4.2229   4.2229   4.2392   4.2870   4.2870   4.3430   4.3972
     4.3972   4.4287   4.4287   4.4451   4.4481   4.4481   4.5057   4.5470
     4.5470   4.5653   4.5653   4.5696   4.5740   4.6120   4.6120   4.6211
     5.1905   5.1905   5.3122   5.7301   5.7301   5.9255   6.2006   6.2006
     7.3070   7.9633   8.6352   8.6533   8.6533   8.7615   9.0037   9.0037
     9.2954   9.2954   9.3341   9.5426   9.5797   9.5797   9.6765   9.6765
     9.7739   9.8916   9.8916   9.9839   9.9839   9.9866  10.0352  10.0352
    10.0521  10.0680  10.1329  10.1329  10.1434  10.1816  10.1834  10.1834
    10.3117  10.3117  10.4007  10.6552  10.6552  10.8774  11.1093  11.1291
    11.1291  11.2880  11.2880  11.3311  11.3419  11.3419  11.4603  11.7565
    11.7565  11.7942  11.8047  11.8048  11.8824  11.9435  11.9902  11.9913

     occupation numbers
     1.0000   1.0000   1.0000   1.0000   1.0000   1.0000   1.0000   1.0000
     1.0000   1.0000   1.0000   1.0000   1.0000   1.0000   1.0000   1.0000
     1.0000   1.0000   1.0000   1.0000   1.0000   1.0000   1.0000   1.0000
     1.0000   1.0000   1.0000   1.0000   1.0000   1.0000   1.0000   1.0000
     1.0000   1.0000   1.0000   1.0000   1.0000   1.0000   1.0000   1.0000
     1.0000   1.0000   1.0000   1.0000   1.0000   1.0000   1.0000   1.0000
     1.0000   1.0000   1.0000   1.0000   1.0000   1.0000   1.0000   1.0000
     1.0000   1.0000   1.0000   1.0000   1.0000   1.0000   1.0000   1.0000
     1.0000   1.0000   1.0000   1.0000   1.0000   1.0000   1.0000   1.0000
     1.0000   1.0000   1.0000   1.0000   1.0000   1.0000   1.0000   1.0000
     1.0000   1.0000   1.0000   1.0000   1.0000   1.0000   1.0000   1.0000
     1.0000   1.0000   1.0000   1.0000   1.0000   1.0000   1.0000   1.0000
     1.0000   1.0000   1.0000   1.0000   1.0000   1.0000   1.0000   1.0000
     1.0000   1.0000   1.0000   1.0000   1.0000   1.0000   1.0000   1.0000
     1.0000   1.0000   1.0000   1.0000   1.0000   1.0000   1.0000   1.0000
     1.0000   1.0000   1.0000   1.0000   1.0000   1.0000   1.0000   1.0000
     1.0000   1.0000   1.0000   1.0000   1.0000   1.0000   1.0000   1.0000
     1.0000   1.0000   1.0000   1.0000   1.0000   1.0000   1.0000   1.0000
     1.0000   1.0000   1.0000   1.0000   1.0000   1.0000   1.0000   1.0000
     1.0000   1.0000   1.0000   1.0000   1.0000   1.0000   1.0000   1.0000
     1.0000   1.0000   1.0000   1.0000   1.0000   1.0000   1.0000   1.0000
     1.0000   1.0000   1.0000   1.0000   1.0000   1.0000   1.0000   1.0000
     1.0000   1.0000   1.0000   1.0000   1.0000   1.0000   1.0000   1.0000
     1.0000   1.0000   1.0000   1.0000   1.0000   1.0000   1.0000   1.0000
     1.0000   1.0000   1.0000   1.0000   1.0000   1.0000   1.0000   1.0000
     1.0000   1.0000   1.0000   1.0000   1.0000   1.0000   1.0000   1.0000
     1.0000   1.0000   1.0000   1.0000   1.0000   1.0000   1.0000   1.0000
     1.0000   1.0000   1.0000   1.0000   1.0000   1.0000   1.0000   1.0000
     1.0000   1.0000   1.0000   1.0000   1.0000   1.0000   1.0000   1.0000
     1.0000   1.0000   1.0000   1.0000   1.0000   1.0000   1.0000   1.0000
     1.0000   1.0000   1.0000   1.0000   1.0000   1.0000   1.0000   1.0000
     1.0000   1.0000   1.0000   1.0000   1.0000   1.0000   1.0000   1.0000
     1.0000   1.0000   1.0000   1.0000   1.0000   1.0000   1.0000   1.0000
     1.0000   1.0000   1.0000   1.0000   1.0000   1.0000   1.0000   1.0000
     1.0000   1.0000   1.0000   1.0000   1.0000   1.0000   1.0000   1.0000
     1.0000   1.0000   1.0000   1.0000   1.0000   1.0000   1.0000   1.0000
     0.0000   0.0000   0.0000   0.0000   0.0000   0.0000   0.0000   0.0000
     0.0000   0.0000   0.0000   0.0000   0.0000   0.0000   0.0000   0.0000
     0.0000   0.0000   0.0000   0.0000   0.0000   0.0000   0.0000   0.0000
     0.0000   0.0000   0.0000   0.0000   0.0000   0.0000   0.0000   0.0000
     0.0000   0.0000   0.0000   0.0000   0.0000   0.0000   0.0000   0.0000
     0.0000   0.0000   0.0000   0.0000   0.0000   0.0000   0.0000   0.0000
     0.0000   0.0000   0.0000   0.0000   0.0000   0.0000   0.0000   0.0000

[...]

          k =-0.5000-0.5000-0.5000 (269968 PWs)   bands (ev):

[...]

 ------ SPIN DOWN ----------

[...]

          k =-0.2500 0.0000 0.2500 (269929 PWs)   bands (ev):

[...]

          k = 0.2500-0.2500-0.5000 (269988 PWs)   bands (ev):

   -86.2091 -49.6294 -49.6294 -49.4479  -7.4397  -7.3891  -7.2062  -7.1904
    -7.1645  -7.0972  -7.0021  -6.9286  -6.8640  -6.8338  -6.8107  -6.7849
    -6.7285  -6.7144  -6.6939  -6.6799  -6.6548  -6.6332  -6.6124  -6.6084
    -6.5837  -6.5617  -6.5244  -6.5135  -6.4969  -6.4834  -6.4689  -6.4586
    -6.4239  -6.3944  -6.3682  -1.1140  -1.1118  -1.1110  -1.0939  -1.0910
    -1.0905  -1.0848  -1.0819  -1.0800  -0.9879  -0.9816  -0.9776  -0.9710
    -0.9672  -0.9637  -0.8079  -0.8001  -0.7848  -0.7791  -0.7704  -0.7647
    -0.7579  -0.7531  -0.7512  -0.7429  -0.7380  -0.7351  -0.7312  -0.7223
    -0.7189  -0.7161  -0.7151  -0.7123  -0.7075  -0.7063  -0.7035  -0.6966
    -0.6932  -0.6881  -0.6827  -0.6798  -0.6763  -0.6703  -0.6680  -0.6660
    -0.6632  -0.6601  -0.6549  -0.6507  -0.6461  -0.6456  -0.6363  -0.6327
    -0.6290  -0.6198  -0.6181  -0.6153  -0.6104  -0.6079  -0.5991  -0.5970
    -0.5909  -0.5853  -0.5807  -0.5713  -0.5679  -0.5619  -0.5590  -0.5576
    -0.5498  -0.5457  -0.5436  -0.5385  -0.5340  -0.5288  -0.5217  -0.5124
    -0.5113  -0.5020  -0.4994  -0.4945  -0.4917  -0.4773  -0.4677  -0.4561
    -0.4498  -0.4437  -0.4339  -0.4206  -0.4172  -0.4079  -0.4027  -0.4006
    -0.3928  -0.3830  -0.3736  -0.3708  -0.3674  -0.3667  -0.3601  -0.3512
    -0.3464  -0.3412  -0.3363  -0.3325  -0.3277  -0.3235  -0.3221  -0.3163
    -0.3135  -0.3117  -0.3085  -0.3060  -0.3010  -0.2989  -0.2927  -0.2881
    -0.2843  -0.2821  -0.2770  -0.2743  -0.2670  -0.2660  -0.2623  -0.2550
    -0.2507  -0.2466  -0.2433  -0.2398  -0.2384  -0.2288  -0.2247  -0.2207
    -0.2147  -0.2071  -0.2052  -0.1968  -0.1907  -0.1870  -0.1763  -0.1670
    -0.1609  -0.1529  -0.1411  -0.1362  -0.1141  -0.1034  -0.0826  -0.0692
    -0.0499  -0.0484  -0.0425  -0.0283  -0.0002   0.0080   0.5181   0.5803
     0.7155   0.7743   0.8142   0.8477   0.8878   0.8897   0.9349   0.9488
     1.0023   1.0153   1.0401   1.0698   1.0761   1.1164   1.1741   1.4076
     1.4451   1.4962   1.5288   1.6010   1.6549   1.6881   1.7909   1.9986
     2.4840   2.5191   2.5263   2.5437   2.5763   2.5906   2.6681   2.6890
     2.7282   2.7711   2.7938   2.8222   2.8775   2.9713   3.0145   3.0840
     3.1950   3.2774   3.2920   3.3368   3.3900   3.4147   3.4338   3.4512
     3.4752   3.4908   3.5227   3.5337   3.5758   3.6077   3.6300   3.6547
     3.6702   3.6961   3.6973   3.7138   3.7377   3.7467   3.7747   3.7890
     3.8409   3.9386   3.9739   3.9935   4.0329   4.0461   4.1031   4.1203
     4.1805   4.2070   4.2264   4.2807   4.3274   4.3666   4.3774   4.4163
     4.4784   4.5582   4.7299   4.7966   4.8018   4.8597   4.8676   4.9418
     5.0012   5.0349   5.0443   6.8298   6.8435   6.8798   7.9271   7.9468
     8.1786   8.5705   8.6555   8.8893   9.0240   9.0841   9.1852   9.2494
     9.3395   9.3694   9.3786   9.4750   9.5083   9.6053   9.6094   9.6369
     9.6621   9.7272   9.7694   9.7909   9.8141   9.8754   9.9102   9.9507
     9.9633  10.0387  10.1114  10.1230  10.1863  10.2240  10.2996  10.3494
    10.3976  10.4690  10.5943  10.6520  10.6878  10.7390  10.8256  10.8941
    10.9250  11.0443  11.0638  11.1672  11.2113  11.3268  11.3833  11.3915
    11.4618  11.4951  11.5134  11.5417  11.6008  11.6175  11.6475  11.6637

     occupation numbers
     1.0000   1.0000   1.0000   1.0000   1.0000   1.0000   1.0000   1.0000
     1.0000   1.0000   1.0000   1.0000   1.0000   1.0000   1.0000   1.0000
     1.0000   1.0000   1.0000   1.0000   1.0000   1.0000   1.0000   1.0000
     1.0000   1.0000   1.0000   1.0000   1.0000   1.0000   1.0000   1.0000
     1.0000   1.0000   1.0000   1.0000   1.0000   1.0000   1.0000   1.0000
     1.0000   1.0000   1.0000   1.0000   1.0000   1.0000   1.0000   1.0000
     1.0000   1.0000   1.0000   1.0000   1.0000   1.0000   1.0000   1.0000
     1.0000   1.0000   1.0000   1.0000   1.0000   1.0000   1.0000   1.0000
     1.0000   1.0000   1.0000   1.0000   1.0000   1.0000   1.0000   1.0000
     1.0000   1.0000   1.0000   1.0000   1.0000   1.0000   1.0000   1.0000
     1.0000   1.0000   1.0000   1.0000   1.0000   1.0000   1.0000   1.0000
     1.0000   1.0000   1.0000   1.0000   1.0000   1.0000   1.0000   1.0000
     1.0000   1.0000   1.0000   1.0000   1.0000   1.0000   1.0000   1.0000
     1.0000   1.0000   1.0000   1.0000   1.0000   1.0000   1.0000   1.0000
     1.0000   1.0000   1.0000   1.0000   1.0000   1.0000   1.0000   1.0000
     1.0000   1.0000   1.0000   1.0000   1.0000   1.0000   1.0000   1.0000
     1.0000   1.0000   1.0000   1.0000   1.0000   1.0000   1.0000   1.0000
     1.0000   1.0000   1.0000   1.0000   1.0000   1.0000   1.0000   1.0000
     1.0000   1.0000   1.0000   1.0000   1.0000   1.0000   1.0000   1.0000
     1.0000   1.0000   1.0000   1.0000   1.0000   1.0000   1.0000   1.0000
     1.0000   1.0000   1.0000   1.0000   1.0000   1.0000   1.0000   1.0000
     1.0000   1.0000   1.0000   1.0000   1.0000   1.0000   1.0000   1.0000
     1.0000   1.0000   1.0000   1.0000   1.0000   1.0000   1.0000   1.0000
     1.0000   1.0000   1.0000   1.0000   1.0000   1.0000   1.0000   1.0000
     1.0000   1.0000   1.0000   1.0000   1.0000   1.0000   1.0000   1.0000
     1.0000   1.0000   1.0000   1.0000   1.0000   1.0000   1.0000   1.0000
     1.0000   1.0000   1.0000   1.0000   1.0000   1.0000   1.0000   1.0000
     1.0000   1.0000   1.0000   1.0000   1.0000   1.0000   1.0000   1.0000
     1.0000   1.0000   1.0000   1.0000   1.0000   1.0000   1.0000   1.0000
     1.0000   1.0000   1.0000   1.0000   1.0000   1.0000   1.0000   1.0000
     1.0000   1.0000   1.0000   1.0000   1.0000   1.0000   1.0000   1.0000
     1.0000   1.0000   1.0000   1.0000   1.0000   1.0000   1.0000   1.0000
     1.0000   1.0000   1.0000   1.0000   1.0000   1.0000   1.0000   1.0000
     1.0000   1.0000   1.0000   1.0000   1.0000   1.0000   1.0000   1.0000
     1.0000   1.0000   1.0000   1.0000   1.0000   1.0000   1.0000   1.0000
     1.0000   1.0000   1.0000   1.0000   1.0000   1.0000   0.0000   0.0000
     0.0000   0.0000   0.0000   0.0000   0.0000   0.0000   0.0000   0.0000
     0.0000   0.0000   0.0000   0.0000   0.0000   0.0000   0.0000   0.0000
     0.0000   0.0000   0.0000   0.0000   0.0000   0.0000   0.0000   0.0000
     0.0000   0.0000   0.0000   0.0000   0.0000   0.0000   0.0000   0.0000
     0.0000   0.0000   0.0000   0.0000   0.0000   0.0000   0.0000   0.0000
     0.0000   0.0000   0.0000   0.0000   0.0000   0.0000   0.0000   0.0000
     0.0000   0.0000   0.0000   0.0000   0.0000   0.0000   0.0000   0.0000

     the Fermi energy is     7.0405 ev

!    total energy              =   -9991.22325424 Ry
     total all-electron energy =   -138896.844044 Ry
     estimated scf accuracy    <          2.9E-09 Ry
     smearing contrib. (-TS)   =      -0.00000000 Ry
     internal energy E=F+TS    =   -9991.22325424 Ry

     The total energy is F=E-TS. E is the sum of the following terms:
     one-electron contribution =   -3018.81632857 Ry
     hartree contribution      =    2076.60619293 Ry
     xc contribution           =   -1652.39370187 Ry
     ewald contribution        =   -2920.92048935 Ry
     one-center paw contrib.   =   -4475.69892739 Ry
      -> PAW hartree energy AE =     123.16082873 Ry
      -> PAW hartree energy PS =    -122.51860587 Ry
      -> PAW xc energy AE      =    -143.20017518 Ry
      -> PAW xc energy PS      =      47.13896582 Ry
      -> total E_H with PAW    =    2077.24841579 Ry
      -> total E_XC with PAW   =   -1748.45491122 Ry

     total magnetization       =     2.00 Bohr mag/cell
     absolute magnetization    =     2.22 Bohr mag/cell

     convergence has been achieved in  17 iterations

     Writing all to output data dir ./out/Co_qp1.save/

     General routines

     Parallel routines

     PAW routines

   This run was terminated on:   4:16:53   7Jul2024

   JOB DONE.