     Program PWSCF v.7.2 starts on  5Jul2024 at  3:43:19

     Reading input from 1.Cu_vac_in_ZnS.scf.qp1.unrlxd.in

     Current dimensions of program PWSCF are:
     Max number of different atomic species (ntypx) = 10
     Max number of k-points (npk) =  40000
     Max angular momentum in pseudopotentials (lmaxx) =  4
     file S.pbe-n-kjpaw_psl.1.0.0.UPF: wavefunction(s)  3S 3P renormalized
     file Zn.pbe-dnl-kjpaw_psl.1.0.0.UPF: wavefunction(s)  4S 3D renormalized
     file Cu.pbe-spn-kjpaw_psl.1.0.0.UPF: wavefunction(s)  4S 3P 3D renormalized

     K-points division:     npool     =       7
     R & G space division:  proc/nbgrp/npool/nimage =     112
     Subspace diagonalization in iterative solution of the eigenvalue problem:
     one sub-group per band group will be used

     Using Slab Decomposition

     bravais-lattice index     =            1
     lattice parameter (alat)  =      20.5686  a.u.
     unit-cell volume          =    8701.8437 (a.u.)^3
     number of atoms/cell      =           63
     number of atomic types    =            3
     number of electrons       =       576.00
     number of Kohn-Sham states=          346
     kinetic-energy cutoff     =     150.0000  Ry
     charge density cutoff     =     600.0000  Ry
     scf convergence threshold =      1.0E-08
     mixing beta               =       0.7000
     number of iterations used =            8  plain     mixing
     Exchange-correlation= SLA  PW   PBX  PBC
                           (   1   4   3   4   0   0   0)

     celldm(1)=  20.568554  celldm(2)=   0.000000  celldm(3)=   0.000000
     celldm(4)=   0.000000  celldm(5)=   0.000000  celldm(6)=   0.000000

     crystal axes: (cart. coord. in units of alat)
               a(1) = (   1.000000   0.000000   0.000000 )
               a(2) = (   0.000000   1.000000   0.000000 )
               a(3) = (   0.000000   0.000000   1.000000 )

     reciprocal axes: (cart. coord. in units 2 pi/alat)
               b(1) = (  1.000000  0.000000  0.000000 )
               b(2) = (  0.000000  1.000000  0.000000 )
               b(3) = (  0.000000  0.000000  1.000000 )

     PseudoPot. # 1 for S  read from file:
     /arf/home/amuhaymin/pseudo/S.pbe-n-kjpaw_psl.1.0.0.UPF
     MD5 check sum: fb45dfebcf3e72a4e1bd4a866ec2e262
     Pseudo is Projector augmented-wave + core cor, Zval =  6.0
     Generated using &quot;atomic&quot; code by A. Dal Corso  v.6.3
     Shape of augmentation charge: PSQ
     Using radial grid of 1151 points,  6 beta functions with:
                l(1) =   0
                l(2) =   0
                l(3) =   1
                l(4) =   1
                l(5) =   2
                l(6) =   2
     Q(r) pseudized with 0 coefficients

     PseudoPot. # 2 for Zn read from file:
     /arf/home/amuhaymin/pseudo/Zn.pbe-dnl-kjpaw_psl.1.0.0.UPF
     MD5 check sum: c608214d9520ac179f507641260889e3
     Pseudo is Projector augmented-wave + core cor, Zval = 12.0
     Generated using &quot;atomic&quot; code by A. Dal Corso  v.6.2.2
     Shape of augmentation charge: PSQ
     Using radial grid of 1201 points,  6 beta functions with:
                l(1) =   0
                l(2) =   0
                l(3) =   1
                l(4) =   1
                l(5) =   2
                l(6) =   2
     Q(r) pseudized with 0 coefficients

     PseudoPot. # 3 for Cu read from file:
     /arf/home/amuhaymin/pseudo/Cu.pbe-spn-kjpaw_psl.1.0.0.UPF
     MD5 check sum: e7cbaad2f97193e5fe23251a619a52b0
     Pseudo is Projector augmented-wave + core cor, Zval = 19.0
     Generated using &quot;atomic&quot; code by A. Dal Corso  v.6.3
     Shape of augmentation charge: PSQ
     Using radial grid of 1199 points,  6 beta functions with:
                l(1) =   0
                l(2) =   0
                l(3) =   1
                l(4) =   1
                l(5) =   2
                l(6) =   2
     Q(r) pseudized with 0 coefficients

     atomic species   valence    mass     pseudopotential
        S              6.00    32.06500     S ( 1.00)
        Zn            12.00    65.38000     Zn( 1.00)
        Cu            19.00    63.54600     Cu( 1.00)

     Starting magnetic structure
     atomic species   magnetization
        S            0.000
        Zn           0.000
        Cu           0.105

      6 Sym. Ops. (no inversion) found

                                    s                        frac. trans.

      isym =  1     identity

 cryst.   s( 1) = (     1          0          0      )
                  (     0          1          0      )
                  (     0          0          1      )

 cart.    s( 1) = (  1.0000000  0.0000000  0.0000000 )
                  (  0.0000000  1.0000000  0.0000000 )
                  (  0.0000000  0.0000000  1.0000000 )

      isym =  2     120 deg rotation - cart. axis [-1,-1,-1]

[...]

      isym =  3     120 deg rotation - cart. axis [1,1,1]

[...]

      isym =  4     inv. 180 deg rotation - cart. axis [1,-1,0]

[...]

      isym =  6     inv. 180 deg rotation - cart. axis [0,1,-1]

 cryst.   s( 6) = (     1          0          0      )
                  (     0          0          1      )
                  (     0          1          0      )

 cart.    s( 6) = (  1.0000000  0.0000000  0.0000000 )
                  (  0.0000000  0.0000000  1.0000000 )
                  (  0.0000000  1.0000000  0.0000000 )

     point group C_3v (3m)
     there are  3 classes
     the character table:

       E     2C3   3s_v
A_1    1.00  1.00  1.00
A_2    1.00  1.00 -1.00
E      2.00 -1.00  0.00

     the symmetry operations in each class and the name of the first element:

     E        1
          identity
     2C3      2    3
          120 deg rotation - cart. axis [-1,-1,-1]
     3s_v     4    5    6
          inv. 180 deg rotation - cart. axis [1,-1,0]

   Cartesian axes

     site n.     atom                  positions (alat units)
         1           Zn  tau(   1) = (   0.0000000   0.0000000   0.0000000  )
         2           Zn  tau(   2) = (   0.0000000   0.2500000   0.2500000  )
         3           Zn  tau(   3) = (   0.2500000   0.0000000   0.2500000  )
         4           Zn  tau(   4) = (   0.2500000   0.2500000   0.0000000  )
         5           S   tau(   5) = (   0.1250000   0.3750000   0.3750000  )
         6           S   tau(   6) = (   0.1250000   0.1250000   0.1250000  )
         7           S   tau(   7) = (   0.3750000   0.3750000   0.1250000  )
         8           S   tau(   8) = (   0.3750000   0.1250000   0.3750000  )
         9           Zn  tau(   9) = (   0.0000000   0.0000000   0.5000000  )
        10           Zn  tau(  10) = (   0.0000000   0.2500000   0.7500000  )
        11           Zn  tau(  11) = (   0.2500000   0.0000000   0.7500000  )
        12           Zn  tau(  12) = (   0.2500000   0.2500000   0.5000000  )
        13           S   tau(  13) = (   0.1250000   0.3750000   0.8750000  )
        14           S   tau(  14) = (   0.1250000   0.1250000   0.6250000  )
        15           S   tau(  15) = (   0.3750000   0.3750000   0.6250000  )
        16           S   tau(  16) = (   0.3750000   0.1250000   0.8750000  )
        17           Zn  tau(  17) = (   0.0000000   0.5000000   0.0000000  )
        18           Zn  tau(  18) = (   0.0000000   0.7500000   0.2500000  )
        19           Zn  tau(  19) = (   0.2500000   0.5000000   0.2500000  )
        20           Zn  tau(  20) = (   0.2500000   0.7500000   0.0000000  )
        21           S   tau(  21) = (   0.1250000   0.8750000   0.3750000  )
        22           S   tau(  22) = (   0.1250000   0.6250000   0.1250000  )
        23           S   tau(  23) = (   0.3750000   0.8750000   0.1250000  )
        24           S   tau(  24) = (   0.3750000   0.6250000   0.3750000  )
        25           Zn  tau(  25) = (   0.0000000   0.5000000   0.5000000  )
        26           Zn  tau(  26) = (   0.0000000   0.7500000   0.7500000  )
        27           Zn  tau(  27) = (   0.2500000   0.5000000   0.7500000  )
        28           Zn  tau(  28) = (   0.2500000   0.7500000   0.5000000  )
        29           S   tau(  29) = (   0.1250000   0.8750000   0.8750000  )
        30           S   tau(  30) = (   0.1250000   0.6250000   0.6250000  )
        31           S   tau(  31) = (   0.3750000   0.8750000   0.6250000  )
        32           S   tau(  32) = (   0.3750000   0.6250000   0.8750000  )
        33           Zn  tau(  33) = (   0.5000000   0.0000000   0.0000000  )
        34           Zn  tau(  34) = (   0.5000000   0.2500000   0.2500000  )
        35           Zn  tau(  35) = (   0.7500000   0.0000000   0.2500000  )
        36           Zn  tau(  36) = (   0.7500000   0.2500000   0.0000000  )
        37           S   tau(  37) = (   0.6250000   0.3750000   0.3750000  )
        38           S   tau(  38) = (   0.6250000   0.1250000   0.1250000  )
        39           S   tau(  39) = (   0.8750000   0.3750000   0.1250000  )
        40           S   tau(  40) = (   0.8750000   0.1250000   0.3750000  )
        41           Zn  tau(  41) = (   0.5000000   0.0000000   0.5000000  )
        42           Zn  tau(  42) = (   0.5000000   0.2500000   0.7500000  )
        43           Zn  tau(  43) = (   0.7500000   0.0000000   0.7500000  )
        44           Zn  tau(  44) = (   0.7500000   0.2500000   0.5000000  )
        45           S   tau(  45) = (   0.6250000   0.3750000   0.8750000  )
        46           S   tau(  46) = (   0.6250000   0.1250000   0.6250000  )
        47           S   tau(  47) = (   0.8750000   0.3750000   0.6250000  )
        48           S   tau(  48) = (   0.8750000   0.1250000   0.8750000  )
        49           Zn  tau(  49) = (   0.5000000   0.5000000   0.0000000  )
        50           Zn  tau(  50) = (   0.5000000   0.7500000   0.2500000  )
        51           Zn  tau(  51) = (   0.7500000   0.5000000   0.2500000  )
        52           Zn  tau(  52) = (   0.7500000   0.7500000   0.0000000  )
        53           S   tau(  53) = (   0.6250000   0.8750000   0.3750000  )
        54           S   tau(  54) = (   0.6250000   0.6250000   0.1250000  )
        55           S   tau(  55) = (   0.8750000   0.8750000   0.1250000  )
        56           S   tau(  56) = (   0.8750000   0.6250000   0.3750000  )
        57           Cu  tau(  57) = (   0.5000000   0.5000000   0.5000000  )
        58           Zn  tau(  58) = (   0.5000000   0.7500000   0.7500000  )
        59           Zn  tau(  59) = (   0.7500000   0.5000000   0.7500000  )
        60           Zn  tau(  60) = (   0.7500000   0.7500000   0.5000000  )
        61           S   tau(  61) = (   0.6250000   0.8750000   0.8750000  )
        62           S   tau(  62) = (   0.8750000   0.8750000   0.6250000  )
        63           S   tau(  63) = (   0.8750000   0.6250000   0.8750000  )

   Crystallographic axes

     site n.     atom                  positions (cryst. coord.)
         1           Zn  tau(   1) = (  0.0000000  0.0000000  0.0000000  )
         2           Zn  tau(   2) = (  0.0000000  0.2500000  0.2500000  )
         3           Zn  tau(   3) = (  0.2500000  0.0000000  0.2500000  )
         4           Zn  tau(   4) = (  0.2500000  0.2500000  0.0000000  )
[...]
     atom  28 (R=0.089)  charge= 10.1569  magn=  0.0000
     atom  29 (R=0.089)  charge=  3.9874  magn=  0.0000
     atom  30 (R=0.089)  charge=  3.9879  magn=  0.0000
     atom  31 (R=0.089)  charge=  3.9804  magn= -0.0000
     atom  32 (R=0.089)  charge=  3.9804  magn= -0.0000
     atom  33 (R=0.089)  charge= 10.1555  magn= -0.0000
     atom  34 (R=0.089)  charge= 10.1542  magn= -0.0000
     atom  35 (R=0.089)  charge= 10.1544  magn= -0.0000
     atom  36 (R=0.089)  charge= 10.1544  magn= -0.0000
     atom  37 (R=0.089)  charge=  3.9710  magn=  0.0001
     atom  38 (R=0.089)  charge=  3.9834  magn=  0.0000
     atom  39 (R=0.089)  charge=  3.9878  magn=  0.0000
     atom  40 (R=0.089)  charge=  3.9878  magn=  0.0000
     atom  41 (R=0.089)  charge= 10.1565  magn=  0.0000
     atom  42 (R=0.089)  charge= 10.1569  magn=  0.0000
     atom  43 (R=0.089)  charge= 10.1573  magn=  0.0000
     atom  44 (R=0.089)  charge= 10.1569  magn=  0.0000
     atom  45 (R=0.089)  charge=  3.9804  magn= -0.0000
     atom  46 (R=0.089)  charge=  3.9879  magn=  0.0000
     atom  47 (R=0.089)  charge=  3.9804  magn= -0.0000
     atom  48 (R=0.089)  charge=  3.9874  magn=  0.0000
     atom  49 (R=0.089)  charge= 10.1565  magn=  0.0000
     atom  50 (R=0.089)  charge= 10.1569  magn=  0.0000
     atom  51 (R=0.089)  charge= 10.1569  magn=  0.0000
     atom  52 (R=0.089)  charge= 10.1573  magn=  0.0000
     atom  53 (R=0.089)  charge=  3.9804  magn= -0.0000
     atom  54 (R=0.089)  charge=  3.9879  magn=  0.0000
     atom  55 (R=0.089)  charge=  3.9874  magn=  0.0000
     atom  56 (R=0.089)  charge=  3.9804  magn= -0.0000
     atom  57 (R=0.089)  charge= 17.3429  magn=  0.0004
     atom  58 (R=0.089)  charge= 10.1195  magn= -0.0000
     atom  59 (R=0.089)  charge= 10.1195  magn= -0.0000
     atom  60 (R=0.089)  charge= 10.1195  magn= -0.0000
     atom  61 (R=0.089)  charge=  3.9800  magn= -0.0000
     atom  62 (R=0.089)  charge=  3.9800  magn= -0.0000
     atom  63 (R=0.089)  charge=  3.9800  magn= -0.0000

     End of self-consistent calculation

 ------ SPIN UP ------------

          k = 0.0000 0.0000 0.0000 (269825 PWs)   bands (ev):

  -105.1265 -62.6653 -62.4540 -62.4540  -7.5912  -7.1563  -7.1563  -7.1055
    -7.0672  -7.0672  -6.9701  -6.9238  -6.9238  -6.8315  -6.8065  -6.7356
    -6.7356  -6.7055  -6.7055  -6.6594  -6.6483  -6.6483  -6.6270  -6.6142
    -6.6142  -6.5621  -6.4614  -6.4614  -6.3941  -6.3315  -6.3255  -6.3255
    -6.3016  -6.1470  -6.1470  -1.2167  -1.2164  -1.2164  -1.1980  -1.1853
    -1.1853  -1.1668  -1.1605  -1.1605  -1.1322  -1.1040  -1.1040  -1.0795
    -1.0795  -1.0635  -0.8092  -0.8092  -0.8091  -0.7849  -0.7834  -0.7834
    -0.7644  -0.7644  -0.7465  -0.7320  -0.7320  -0.7207  -0.7125  -0.7125
    -0.7090  -0.6944  -0.6915  -0.6915  -0.6843  -0.6824  -0.6824  -0.6789
    -0.6789  -0.6768  -0.6564  -0.6526  -0.6526  -0.6429  -0.6418  -0.6418
    -0.6383  -0.6347  -0.6347  -0.6158  -0.6158  -0.6136  -0.6091  -0.6091
    -0.6045  -0.6045  -0.6033  -0.5927  -0.5828  -0.5828  -0.5827  -0.5678
    -0.5606  -0.5606  -0.5477  -0.5477  -0.5365  -0.5304  -0.5250  -0.5250
    -0.5167  -0.4996  -0.4982  -0.4937  -0.4937  -0.4792  -0.4792  -0.4640
    -0.4640  -0.4621  -0.4621  -0.4451  -0.4451  -0.4445  -0.4419  -0.4419
    -0.4400  -0.4377  -0.4377  -0.4155  -0.4092  -0.3855  -0.3855  -0.3792
    -0.3773  -0.3773  -0.3710  -0.3710  -0.3687  -0.3580  -0.3580  -0.3544
    -0.3454  -0.3356  -0.3338  -0.3338  -0.3312  -0.3304  -0.3304  -0.3126
    -0.3126  -0.3105  -0.3078  -0.3078  -0.2892  -0.2892  -0.2874  -0.2855
    -0.2499  -0.2499  -0.2432  -0.2432  -0.2300  -0.2300  -0.2180  -0.2145
    -0.2145  -0.2144  -0.2124  -0.2037  -0.2037  -0.1926  -0.1909  -0.1909
    -0.1850  -0.1783  -0.1783  -0.1685  -0.1607  -0.1607  -0.1581  -0.1548
    -0.1548  -0.1451  -0.1225  -0.1225  -0.0974  -0.0963  -0.0963  -0.0377
     0.0316   0.0583   0.0583   0.0616   0.0881   0.0881   0.2624   0.3354
     0.3462   0.3462   0.8992   0.8992   0.9390   0.9562   0.9695   0.9695
     1.0110   1.0160   1.0160   1.2988   1.4911   1.4911   1.5135   1.5135
     1.5517   1.5564   1.5688   1.5688   1.6570   1.6570   2.0659   2.6120
     2.7075   2.7075   2.7250   2.7432   2.7534   2.7534   2.7679   2.7679
     2.7804   2.7804   2.7829   2.8363   2.8527   2.8527   2.9474   2.9474
     2.9660   2.9660   2.9766   2.9852   2.9960   2.9960   3.0003   3.0333
     3.0333   3.1251   3.1536   3.1536   3.2112   3.2762   3.2951   3.2951
     3.5698   3.5698   3.6266   3.9460   3.9460   4.1790   4.1854   4.1854
     4.1917   4.2172   4.2421   4.2421   4.3088   4.3088   4.3669   4.3980
     4.3980   4.4411   4.4411   4.4543   4.4670   4.4670   4.5096   4.5096
     4.5319   4.6151   4.6151   4.6161   4.6220   4.6412   4.6412   4.6804
     4.7413   5.0745   5.0745   5.2355   5.2355   5.3884   5.8399   5.8399
     5.8592   7.7515   8.0830   8.0830   8.7551   8.7756   8.7756   8.8640
     8.9565   8.9565   9.0149   9.2433   9.5446   9.5614   9.5614   9.8896
     9.8896   9.9685   9.9877   9.9877  10.0367  10.0387  10.0387  10.0648
    10.0757  10.0757  10.1920  10.1920  10.2008  10.2062  10.2275  10.2275
    10.2445  10.2445  10.2832  10.5975  10.5975  10.6955  11.1396  11.1879
    11.1879  11.2335  11.2335  11.3475  11.3590  11.3590  11.3732  11.6714
    11.6856  11.6856  11.8659  11.8784  11.8784  11.8838  12.0771  12.0803
    12.0803  12.1051

     occupation numbers
     1.0000   1.0000   1.0000   1.0000   1.0000   1.0000   1.0000   1.0000
     1.0000   1.0000   1.0000   1.0000   1.0000   1.0000   1.0000   1.0000
     1.0000   1.0000   1.0000   1.0000   1.0000   1.0000   1.0000   1.0000
     1.0000   1.0000   1.0000   1.0000   1.0000   1.0000   1.0000   1.0000
     1.0000   1.0000   1.0000   1.0000   1.0000   1.0000   1.0000   1.0000
     1.0000   1.0000   1.0000   1.0000   1.0000   1.0000   1.0000   1.0000
     1.0000   1.0000   1.0000   1.0000   1.0000   1.0000   1.0000   1.0000
     1.0000   1.0000   1.0000   1.0000   1.0000   1.0000   1.0000   1.0000
     1.0000   1.0000   1.0000   1.0000   1.0000   1.0000   1.0000   1.0000
     1.0000   1.0000   1.0000   1.0000   1.0000   1.0000   1.0000   1.0000
     1.0000   1.0000   1.0000   1.0000   1.0000   1.0000   1.0000   1.0000
     1.0000   1.0000   1.0000   1.0000   1.0000   1.0000   1.0000   1.0000
     1.0000   1.0000   1.0000   1.0000   1.0000   1.0000   1.0000   1.0000
     1.0000   1.0000   1.0000   1.0000   1.0000   1.0000   1.0000   1.0000
     1.0000   1.0000   1.0000   1.0000   1.0000   1.0000   1.0000   1.0000
     1.0000   1.0000   1.0000   1.0000   1.0000   1.0000   1.0000   1.0000
     1.0000   1.0000   1.0000   1.0000   1.0000   1.0000   1.0000   1.0000
     1.0000   1.0000   1.0000   1.0000   1.0000   1.0000   1.0000   1.0000
     1.0000   1.0000   1.0000   1.0000   1.0000   1.0000   1.0000   1.0000
     1.0000   1.0000   1.0000   1.0000   1.0000   1.0000   1.0000   1.0000
     1.0000   1.0000   1.0000   1.0000   1.0000   1.0000   1.0000   1.0000
     1.0000   1.0000   1.0000   1.0000   1.0000   1.0000   1.0000   1.0000
     1.0000   1.0000   1.0000   1.0000   1.0000   1.0000   1.0000   1.0000
     1.0000   1.0000   1.0000   1.0000   1.0000   1.0000   1.0000   1.0000
     1.0000   1.0000   1.0000   1.0000   1.0000   1.0000   1.0000   1.0000
     1.0000   1.0000   1.0000   1.0000   1.0000   1.0000   1.0000   1.0000
     1.0000   1.0000   1.0000   1.0000   1.0000   1.0000   1.0000   1.0000
     1.0000   1.0000   1.0000   1.0000   1.0000   1.0000   1.0000   1.0000
     1.0000   1.0000   1.0000   1.0000   1.0000   1.0000   1.0000   1.0000
     1.0000   1.0000   1.0000   1.0000   1.0000   1.0000   1.0000   1.0000
     1.0000   1.0000   1.0000   1.0000   1.0000   1.0000   1.0000   1.0000
     1.0000   1.0000   1.0000   1.0000   1.0000   1.0000   1.0000   1.0000
     1.0000   1.0000   1.0000   1.0000   1.0000   1.0000   1.0000   1.0000
     1.0000   1.0000   1.0000   1.0000   1.0000   1.0000   1.0000   1.0000
     1.0000   1.0000   1.0000   1.0000   1.0000   1.0000   1.0000   1.0000
     1.0000   1.0000   1.0000   1.0000   1.0000   1.0000   0.9335   0.9335
     0.3077   0.0000   0.0000   0.0000   0.0000   0.0000   0.0000   0.0000
     0.0000   0.0000   0.0000   0.0000   0.0000   0.0000   0.0000   0.0000
     0.0000   0.0000   0.0000   0.0000   0.0000   0.0000   0.0000   0.0000
     0.0000   0.0000   0.0000   0.0000   0.0000   0.0000   0.0000   0.0000
     0.0000   0.0000   0.0000   0.0000   0.0000   0.0000   0.0000   0.0000
     0.0000   0.0000   0.0000   0.0000   0.0000   0.0000   0.0000   0.0000
     0.0000   0.0000   0.0000   0.0000   0.0000   0.0000   0.0000   0.0000
     0.0000   0.0000

[...]

          k =-0.5000-0.5000-0.5000 (269968 PWs)   bands (ev):

[...]

 ------ SPIN DOWN ----------

[...]

          k =-0.2500 0.0000 0.2500 (269929 PWs)   bands (ev):

[...]

          k = 0.2500-0.2500-0.5000 (269988 PWs)   bands (ev):

  -105.1258 -62.6647 -62.4533 -62.4533  -7.4315  -7.3530  -7.2102  -7.1806
    -7.1386  -7.0620  -6.9674  -6.8867  -6.8725  -6.8474  -6.8297  -6.7741
    -6.7091  -6.6803  -6.6422  -6.6249  -6.6069  -6.5937  -6.5688  -6.5663
    -6.5494  -6.4912  -6.4651  -6.4512  -6.4296  -6.4106  -6.3937  -6.3697
    -6.2870  -6.1854  -6.1716  -1.2157  -1.2143  -1.2136  -1.1976  -1.1860
    -1.1855  -1.1701  -1.1601  -1.1596  -1.1248  -1.1007  -1.0988  -1.0813
    -1.0802  -1.0687  -0.7894  -0.7787  -0.7756  -0.7733  -0.7592  -0.7524
    -0.7487  -0.7428  -0.7369  -0.7354  -0.7307  -0.7296  -0.7245  -0.7208
    -0.7172  -0.7114  -0.7060  -0.6989  -0.6943  -0.6930  -0.6896  -0.6878
    -0.6828  -0.6760  -0.6705  -0.6668  -0.6655  -0.6581  -0.6521  -0.6491
    -0.6412  -0.6399  -0.6380  -0.6349  -0.6272  -0.6228  -0.6146  -0.6137
    -0.6130  -0.6032  -0.6015  -0.5981  -0.5970  -0.5916  -0.5871  -0.5804
    -0.5751  -0.5685  -0.5669  -0.5502  -0.5455  -0.5400  -0.5351  -0.5274
    -0.5223  -0.5209  -0.5132  -0.5087  -0.5035  -0.4977  -0.4926  -0.4904
    -0.4785  -0.4777  -0.4714  -0.4635  -0.4558  -0.4487  -0.4429  -0.4332
    -0.4253  -0.4220  -0.4172  -0.4023  -0.3972  -0.3926  -0.3900  -0.3836
    -0.3745  -0.3728  -0.3614  -0.3559  -0.3533  -0.3496  -0.3481  -0.3456
    -0.3390  -0.3382  -0.3324  -0.3269  -0.3221  -0.3219  -0.3181  -0.3147
    -0.3078  -0.3048  -0.2992  -0.2924  -0.2852  -0.2807  -0.2762  -0.2647
    -0.2604  -0.2526  -0.2411  -0.2354  -0.2324  -0.2282  -0.2208  -0.2191
    -0.2119  -0.2001  -0.1929  -0.1926  -0.1883  -0.1846  -0.1797  -0.1764
    -0.1747  -0.1692  -0.1672  -0.1653  -0.1626  -0.1611  -0.1565  -0.1514
    -0.1465  -0.1339  -0.1164  -0.1098  -0.0890  -0.0852  -0.0673  -0.0539
    -0.0423  -0.0242  -0.0109   0.0011   0.0151   0.0261   0.5686   0.6277
     0.7053   0.8151   0.8622   0.8875   0.9195   0.9282   0.9611   0.9735
     1.0051   1.0272   1.0318   1.0691   1.0805   1.1270   1.1334   1.3510
     1.4145   1.5296   1.5778   1.6246   1.6538   1.6877   1.7601   2.0492
     2.4200   2.5618   2.5831   2.5944   2.6197   2.6626   2.6720   2.7327
     2.7519   2.8021   2.8158   2.8552   2.9206   2.9427   2.9943   3.0298
     3.2368   3.2608   3.3537   3.3651   3.3757   3.4286   3.4559   3.4794
     3.4945   3.5114   3.5432   3.5792   3.5913   3.6199   3.6260   3.6465
     3.6905   3.6967   3.7308   3.7380   3.7525   3.7638   3.7819   3.8108
     3.8315   3.9550   3.9749   3.9990   4.0094   4.0230   4.1071   4.1309
     4.1637   4.2021   4.2272   4.2572   4.3358   4.3811   4.4101   4.4214
     4.4878   4.5041   4.6641   4.7389   4.7639   4.7851   4.8238   4.8931
     4.9234   4.9557   5.0553   5.0814   5.1549   5.1775   5.7331   5.7813
     6.1490   7.8362   7.9405   8.7267   8.9314   9.0511   9.1033   9.1569
     9.3590   9.4002   9.4679   9.5203   9.5576   9.6201   9.6434   9.6641
     9.6779   9.7465   9.7726   9.8260   9.8427   9.8701   9.8944   9.9807
     9.9886  10.0142  10.0634  10.0974  10.1160  10.1704  10.2113  10.3090
    10.3823  10.3892  10.4376  10.5724  10.6937  10.7517  10.8041  10.8258
    10.8666  10.9790  11.0350  11.1436  11.2563  11.3227  11.3343  11.3981
    11.4714  11.5155  11.5265  11.5307  11.6126  11.6148  11.6318  11.6590
    11.6739  11.6931

     occupation numbers
     1.0000   1.0000   1.0000   1.0000   1.0000   1.0000   1.0000   1.0000
     1.0000   1.0000   1.0000   1.0000   1.0000   1.0000   1.0000   1.0000
     1.0000   1.0000   1.0000   1.0000   1.0000   1.0000   1.0000   1.0000
     1.0000   1.0000   1.0000   1.0000   1.0000   1.0000   1.0000   1.0000
     1.0000   1.0000   1.0000   1.0000   1.0000   1.0000   1.0000   1.0000
     1.0000   1.0000   1.0000   1.0000   1.0000   1.0000   1.0000   1.0000
     1.0000   1.0000   1.0000   1.0000   1.0000   1.0000   1.0000   1.0000
     1.0000   1.0000   1.0000   1.0000   1.0000   1.0000   1.0000   1.0000
     1.0000   1.0000   1.0000   1.0000   1.0000   1.0000   1.0000   1.0000
     1.0000   1.0000   1.0000   1.0000   1.0000   1.0000   1.0000   1.0000
     1.0000   1.0000   1.0000   1.0000   1.0000   1.0000   1.0000   1.0000
     1.0000   1.0000   1.0000   1.0000   1.0000   1.0000   1.0000   1.0000
     1.0000   1.0000   1.0000   1.0000   1.0000   1.0000   1.0000   1.0000
     1.0000   1.0000   1.0000   1.0000   1.0000   1.0000   1.0000   1.0000
     1.0000   1.0000   1.0000   1.0000   1.0000   1.0000   1.0000   1.0000
     1.0000   1.0000   1.0000   1.0000   1.0000   1.0000   1.0000   1.0000
     1.0000   1.0000   1.0000   1.0000   1.0000   1.0000   1.0000   1.0000
     1.0000   1.0000   1.0000   1.0000   1.0000   1.0000   1.0000   1.0000
     1.0000   1.0000   1.0000   1.0000   1.0000   1.0000   1.0000   1.0000
     1.0000   1.0000   1.0000   1.0000   1.0000   1.0000   1.0000   1.0000
     1.0000   1.0000   1.0000   1.0000   1.0000   1.0000   1.0000   1.0000
     1.0000   1.0000   1.0000   1.0000   1.0000   1.0000   1.0000   1.0000
     1.0000   1.0000   1.0000   1.0000   1.0000   1.0000   1.0000   1.0000
     1.0000   1.0000   1.0000   1.0000   1.0000   1.0000   1.0000   1.0000
     1.0000   1.0000   1.0000   1.0000   1.0000   1.0000   1.0000   1.0000
     1.0000   1.0000   1.0000   1.0000   1.0000   1.0000   1.0000   1.0000
     1.0000   1.0000   1.0000   1.0000   1.0000   1.0000   1.0000   1.0000
     1.0000   1.0000   1.0000   1.0000   1.0000   1.0000   1.0000   1.0000
     1.0000   1.0000   1.0000   1.0000   1.0000   1.0000   1.0000   1.0000
     1.0000   1.0000   1.0000   1.0000   1.0000   1.0000   1.0000   1.0000
     1.0000   1.0000   1.0000   1.0000   1.0000   1.0000   1.0000   1.0000
     1.0000   1.0000   1.0000   1.0000   1.0000   1.0000   1.0000   1.0000
     1.0000   1.0000   1.0000   1.0000   1.0000   1.0000   1.0000   1.0000
     1.0000   1.0000   1.0000   1.0000   1.0000   1.0000   1.0000   1.0000
     1.0000   1.0000   1.0000   1.0000   1.0000   1.0000   1.0000   1.0000
     1.0000   1.0000   1.0000   1.0000   1.0000   1.0000   1.0000   1.0000
     0.0000   0.0000   0.0000   0.0000   0.0000   0.0000   0.0000   0.0000
     0.0000   0.0000   0.0000   0.0000   0.0000   0.0000   0.0000   0.0000
     0.0000   0.0000   0.0000   0.0000   0.0000   0.0000   0.0000   0.0000
     0.0000   0.0000   0.0000   0.0000   0.0000   0.0000   0.0000   0.0000
     0.0000   0.0000   0.0000   0.0000   0.0000   0.0000   0.0000   0.0000
     0.0000   0.0000   0.0000   0.0000   0.0000   0.0000   0.0000   0.0000
     0.0000   0.0000   0.0000   0.0000   0.0000   0.0000   0.0000   0.0000
     0.0000   0.0000

     the Fermi energy is     5.8544 ev

!    total energy              =  -10101.35144829 Ry
     total all-electron energy =   -139419.880496 Ry
     estimated scf accuracy    <          3.8E-09 Ry
     smearing contrib. (-TS)   =      -0.00002387 Ry
     internal energy E=F+TS    =  -10101.35142442 Ry

     The total energy is F=E-TS. E is the sum of the following terms:
     one-electron contribution =   -3084.05004749 Ry
     hartree contribution      =    2113.91895012 Ry
     xc contribution           =   -1659.61282287 Ry
     ewald contribution        =   -2984.70201120 Ry
     one-center paw contrib.   =   -4486.90549298 Ry
      -> PAW hartree energy AE =     123.15059622 Ry
      -> PAW hartree energy PS =    -122.50841396 Ry
      -> PAW xc energy AE      =    -143.19927960 Ry
      -> PAW xc energy PS      =      47.13808425 Ry
      -> total E_H with PAW    =    2114.56113238 Ry
      -> total E_XC with PAW   =   -1755.67401822 Ry

     total magnetization       =    -0.00 Bohr mag/cell
     absolute magnetization    =     0.00 Bohr mag/cell

     convergence has been achieved in  18 iterations

     Writing all to output data dir ./out/Cu_vac_qp1_unrlxd.save/

     General routines

     Parallel routines

     PAW routines

   This run was terminated on:   3:50:41   5Jul2024

   JOB DONE.