     Program PWSCF v.7.2 starts on 10Jul2024 at 20:49:11

     Reading input from 2.Fe_vac_in_ZnS.scf.qp1.in

     Current dimensions of program PWSCF are:
     Max number of different atomic species (ntypx) = 10
     Max number of k-points (npk) =  40000
     Max angular momentum in pseudopotentials (lmaxx) =  4
     file S.pbe-n-kjpaw_psl.1.0.0.UPF: wavefunction(s)  3S 3P renormalized
     file Zn.pbe-dnl-kjpaw_psl.1.0.0.UPF: wavefunction(s)  4S 3D renormalized
     file Fe.pbe-spn-kjpaw_psl.1.0.0.UPF: wavefunction(s)  3P 3D renormalized

     K-points division:     npool     =       7
     R & G space division:  proc/nbgrp/npool/nimage =     112
     Subspace diagonalization in iterative solution of the eigenvalue problem:
     one sub-group per band group will be used

     Using Slab Decomposition

     bravais-lattice index     =            1
     lattice parameter (alat)  =      20.5686  a.u.
     unit-cell volume          =    8701.8437 (a.u.)^3
     number of atoms/cell      =           63
     number of atomic types    =            3
     number of electrons       =       573.00
     number of Kohn-Sham states=          344
     kinetic-energy cutoff     =     150.0000  Ry
     charge density cutoff     =     600.0000  Ry
     scf convergence threshold =      1.0E-08
     mixing beta               =       0.7000
     number of iterations used =            8  plain     mixing
     Exchange-correlation= SLA  PW   PBX  PBC
                           (   1   4   3   4   0   0   0)

     celldm(1)=  20.568554  celldm(2)=   0.000000  celldm(3)=   0.000000
     celldm(4)=   0.000000  celldm(5)=   0.000000  celldm(6)=   0.000000

     crystal axes: (cart. coord. in units of alat)
               a(1) = (   1.000000   0.000000   0.000000 )
               a(2) = (   0.000000   1.000000   0.000000 )
               a(3) = (   0.000000   0.000000   1.000000 )

     reciprocal axes: (cart. coord. in units 2 pi/alat)
               b(1) = (  1.000000  0.000000  0.000000 )
               b(2) = (  0.000000  1.000000  0.000000 )
               b(3) = (  0.000000  0.000000  1.000000 )

     PseudoPot. # 1 for S  read from file:
     /arf/home/amuhaymin/pseudo/S.pbe-n-kjpaw_psl.1.0.0.UPF
     MD5 check sum: fb45dfebcf3e72a4e1bd4a866ec2e262
     Pseudo is Projector augmented-wave + core cor, Zval =  6.0
     Generated using &quot;atomic&quot; code by A. Dal Corso  v.6.3
     Shape of augmentation charge: PSQ
     Using radial grid of 1151 points,  6 beta functions with:
                l(1) =   0
                l(2) =   0
                l(3) =   1
                l(4) =   1
                l(5) =   2
                l(6) =   2
     Q(r) pseudized with 0 coefficients

     PseudoPot. # 2 for Zn read from file:
     /arf/home/amuhaymin/pseudo/Zn.pbe-dnl-kjpaw_psl.1.0.0.UPF
     MD5 check sum: c608214d9520ac179f507641260889e3
     Pseudo is Projector augmented-wave + core cor, Zval = 12.0
     Generated using &quot;atomic&quot; code by A. Dal Corso  v.6.2.2
     Shape of augmentation charge: PSQ
     Using radial grid of 1201 points,  6 beta functions with:
                l(1) =   0
                l(2) =   0
                l(3) =   1
                l(4) =   1
                l(5) =   2
                l(6) =   2
     Q(r) pseudized with 0 coefficients

     PseudoPot. # 3 for Fe read from file:
     /arf/home/amuhaymin/pseudo/Fe.pbe-spn-kjpaw_psl.1.0.0.UPF
     MD5 check sum: fc81f059e5c5069939230b1155715ae8
     Pseudo is Projector augmented-wave + core cor, Zval = 16.0
     Generated using &quot;atomic&quot; code by A. Dal Corso  v.6.3
     Shape of augmentation charge: PSQ
     Using radial grid of 1191 points,  6 beta functions with:
                l(1) =   0
                l(2) =   0
                l(3) =   1
                l(4) =   1
                l(5) =   2
                l(6) =   2
     Q(r) pseudized with 0 coefficients

     atomic species   valence    mass     pseudopotential
        S              6.00    32.06500     S ( 1.00)
        Zn            12.00    65.38000     Zn( 1.00)
        Fe            16.00    63.54600     Fe( 1.00)

     Starting magnetic structure
     atomic species   magnetization
        S            0.000
        Zn           0.000
        Fe           0.312

      6 Sym. Ops. (no inversion) found

                                    s                        frac. trans.

      isym =  1     identity

 cryst.   s( 1) = (     1          0          0      )
                  (     0          1          0      )
                  (     0          0          1      )

 cart.    s( 1) = (  1.0000000  0.0000000  0.0000000 )
                  (  0.0000000  1.0000000  0.0000000 )
                  (  0.0000000  0.0000000  1.0000000 )

      isym =  2     120 deg rotation - cart. axis [-1,-1,-1]

[...]

      isym =  3     120 deg rotation - cart. axis [1,1,1]

[...]

      isym =  4     inv. 180 deg rotation - cart. axis [1,-1,0]

[...]

      isym =  6     inv. 180 deg rotation - cart. axis [0,1,-1]

 cryst.   s( 6) = (     1          0          0      )
                  (     0          0          1      )
                  (     0          1          0      )

 cart.    s( 6) = (  1.0000000  0.0000000  0.0000000 )
                  (  0.0000000  0.0000000  1.0000000 )
                  (  0.0000000  1.0000000  0.0000000 )

     point group C_3v (3m)
     there are  3 classes
     the character table:

       E     2C3   3s_v
A_1    1.00  1.00  1.00
A_2    1.00  1.00 -1.00
E      2.00 -1.00  0.00

     the symmetry operations in each class and the name of the first element:

     E        1
          identity
     2C3      2    3
          120 deg rotation - cart. axis [-1,-1,-1]
     3s_v     4    5    6
          inv. 180 deg rotation - cart. axis [1,-1,0]

   Cartesian axes

     site n.     atom                  positions (alat units)
         1           Zn  tau(   1) = (   0.0000898   0.0000898   0.0000898  )
         2           Zn  tau(   2) = (   0.0006354   0.2497166   0.2497166  )
         3           Zn  tau(   3) = (   0.2497166   0.0006354   0.2497166  )
         4           Zn  tau(   4) = (   0.2497166   0.2497166   0.0006354  )
         5           S   tau(   5) = (   0.1248847   0.3747467   0.3747467  )
         6           S   tau(   6) = (   0.1246827   0.1246827   0.1246827  )
         7           S   tau(   7) = (   0.3747467   0.3747467   0.1248847  )
         8           S   tau(   8) = (   0.3747467   0.1248847   0.3747467  )
         9           Zn  tau(   9) = (   0.0020918   0.0020918   0.4990235  )
        10           Zn  tau(  10) = (   0.0024299   0.2473852   0.7503523  )
        11           Zn  tau(  11) = (   0.2473852   0.0024299   0.7503523  )
        12           Zn  tau(  12) = (   0.2524590   0.2524590   0.4996729  )
        13           S   tau(  13) = (   0.1243440   0.3744313   0.8753886  )
        14           S   tau(  14) = (   0.1257471   0.1257471   0.6236747  )
        15           S   tau(  15) = (   0.3754983   0.3754983   0.6271440  )
        16           S   tau(  16) = (   0.3744313   0.1243440   0.8753886  )
        17           Zn  tau(  17) = (   0.0020918   0.4990235   0.0020918  )
        18           Zn  tau(  18) = (   0.0024299   0.7503523   0.2473852  )
        19           Zn  tau(  19) = (   0.2524590   0.4996729   0.2524590  )
        20           Zn  tau(  20) = (   0.2473852   0.7503523   0.0024299  )
        21           S   tau(  21) = (   0.1243440   0.8753886   0.3744313  )
        22           S   tau(  22) = (   0.1257471   0.6236747   0.1257471  )
        23           S   tau(  23) = (   0.3744313   0.8753886   0.1243440  )
        24           S   tau(  24) = (   0.3754983   0.6271440   0.3754983  )
        25           Zn  tau(  25) = (   0.0035116   0.5002251   0.5002251  )
        26           Zn  tau(  26) = (   0.0026514   0.7488795   0.7488795  )
        27           Zn  tau(  27) = (   0.2483019   0.4975313   0.7486282  )
        28           Zn  tau(  28) = (   0.2483019   0.7486282   0.4975313  )
        29           S   tau(  29) = (   0.1244342   0.8746258   0.8746258  )
        30           S   tau(  30) = (   0.1257871   0.6249009   0.6249009  )
        31           S   tau(  31) = (   0.3727770   0.8769239   0.6224056  )
        32           S   tau(  32) = (   0.3727770   0.6224056   0.8769239  )
        33           Zn  tau(  33) = (   0.4990235   0.0020918   0.0020918  )
        34           Zn  tau(  34) = (   0.4996729   0.2524590   0.2524590  )
        35           Zn  tau(  35) = (   0.7503523   0.0024299   0.2473852  )
        36           Zn  tau(  36) = (   0.7503523   0.2473852   0.0024299  )
        37           S   tau(  37) = (   0.6271440   0.3754983   0.3754983  )
        38           S   tau(  38) = (   0.6236747   0.1257471   0.1257471  )
        39           S   tau(  39) = (   0.8753886   0.3744313   0.1243440  )
        40           S   tau(  40) = (   0.8753886   0.1243440   0.3744313  )
        41           Zn  tau(  41) = (   0.5002251   0.0035116   0.5002251  )
        42           Zn  tau(  42) = (   0.4975313   0.2483019   0.7486282  )
        43           Zn  tau(  43) = (   0.7488795   0.0026514   0.7488795  )
        44           Zn  tau(  44) = (   0.7486282   0.2483019   0.4975313  )
        45           S   tau(  45) = (   0.6224056   0.3727770   0.8769239  )
        46           S   tau(  46) = (   0.6249009   0.1257871   0.6249009  )
        47           S   tau(  47) = (   0.8769239   0.3727770   0.6224056  )
        48           S   tau(  48) = (   0.8746258   0.1244342   0.8746258  )
        49           Zn  tau(  49) = (   0.5002251   0.5002251   0.0035116  )
        50           Zn  tau(  50) = (   0.4975313   0.7486282   0.2483019  )
        51           Zn  tau(  51) = (   0.7486282   0.4975313   0.2483019  )
        52           Zn  tau(  52) = (   0.7488795   0.7488795   0.0026514  )
        53           S   tau(  53) = (   0.6224056   0.8769239   0.3727770  )
        54           S   tau(  54) = (   0.6249009   0.6249009   0.1257871  )
        55           S   tau(  55) = (   0.8746258   0.8746258   0.1244342  )
        56           S   tau(  56) = (   0.8769239   0.6224056   0.3727770  )
        57           Fe  tau(  57) = (   0.4796475   0.4796475   0.4796475  )
        58           Zn  tau(  58) = (   0.4720820   0.7751000   0.7751000  )
        59           Zn  tau(  59) = (   0.7751000   0.4720820   0.7751000  )
        60           Zn  tau(  60) = (   0.7751000   0.7751000   0.4720820  )
        61           S   tau(  61) = (   0.6263827   0.8754578   0.8754578  )
        62           S   tau(  62) = (   0.8754578   0.8754578   0.6263827  )
        63           S   tau(  63) = (   0.8754578   0.6263827   0.8754578  )

   Crystallographic axes

     site n.     atom                  positions (cryst. coord.)
         1           Zn  tau(   1) = (  0.0000898  0.0000898  0.0000898  )
         2           Zn  tau(   2) = (  0.0006354  0.2497166  0.2497166  )
         3           Zn  tau(   3) = (  0.2497166  0.0006354  0.2497166  )
         4           Zn  tau(   4) = (  0.2497166  0.2497166  0.0006354  )
[...]
     atom  26 (R=0.086)  charge= 10.0040  magn= -0.0000
     atom  27 (R=0.086)  charge= 10.0068  magn=  0.0033
     atom  28 (R=0.086)  charge= 10.0068  magn=  0.0033
     atom  29 (R=0.086)  charge=  3.7289  magn= -0.0003
     atom  30 (R=0.086)  charge=  3.7361  magn=  0.0000
     atom  31 (R=0.086)  charge=  3.7314  magn= -0.0001
     atom  32 (R=0.086)  charge=  3.7314  magn= -0.0001
     atom  33 (R=0.086)  charge= 10.0039  magn= -0.0000
     atom  34 (R=0.086)  charge= 10.0027  magn= -0.0010
     atom  35 (R=0.086)  charge= 10.0036  magn= -0.0003
     atom  36 (R=0.086)  charge= 10.0036  magn= -0.0003
     atom  37 (R=0.086)  charge=  3.7464  magn=  0.0107
     atom  38 (R=0.086)  charge=  3.7336  magn= -0.0012
     atom  39 (R=0.086)  charge=  3.7309  magn=  0.0025
     atom  40 (R=0.086)  charge=  3.7309  magn=  0.0025
     atom  41 (R=0.086)  charge= 10.0042  magn= -0.0001
     atom  42 (R=0.086)  charge= 10.0068  magn=  0.0033
     atom  43 (R=0.086)  charge= 10.0040  magn= -0.0000
     atom  44 (R=0.086)  charge= 10.0068  magn=  0.0033
     atom  45 (R=0.086)  charge=  3.7314  magn= -0.0001
     atom  46 (R=0.086)  charge=  3.7361  magn=  0.0000
     atom  47 (R=0.086)  charge=  3.7314  magn= -0.0001
     atom  48 (R=0.086)  charge=  3.7289  magn= -0.0003
     atom  49 (R=0.086)  charge= 10.0042  magn= -0.0001
     atom  50 (R=0.086)  charge= 10.0068  magn=  0.0033
     atom  51 (R=0.086)  charge= 10.0068  magn=  0.0033
     atom  52 (R=0.086)  charge= 10.0040  magn= -0.0000
     atom  53 (R=0.086)  charge=  3.7314  magn= -0.0001
     atom  54 (R=0.086)  charge=  3.7361  magn=  0.0000
     atom  55 (R=0.086)  charge=  3.7289  magn= -0.0003
     atom  56 (R=0.086)  charge=  3.7314  magn= -0.0001
     atom  57 (R=0.086)  charge= 13.9483  magn=  2.5218
     atom  58 (R=0.086)  charge= 10.0167  magn= -0.0009
     atom  59 (R=0.086)  charge= 10.0167  magn= -0.0009
     atom  60 (R=0.086)  charge= 10.0167  magn= -0.0009
     atom  61 (R=0.086)  charge=  3.7295  magn= -0.0004
     atom  62 (R=0.086)  charge=  3.7295  magn= -0.0004
     atom  63 (R=0.086)  charge=  3.7295  magn= -0.0004

     End of self-consistent calculation

 ------ SPIN UP ------------

          k = 0.0000 0.0000 0.0000 (269825 PWs)   bands (ev):

   -80.4144 -46.6213 -46.6213 -46.3324  -7.6126  -7.1594  -7.1594  -7.0897
    -7.0897  -7.0823  -6.9916  -6.8908  -6.8908  -6.8329  -6.8198  -6.7714
    -6.7714  -6.7446  -6.7446  -6.6999  -6.6978  -6.6978  -6.6714  -6.6564
    -6.6564  -6.6489  -6.4859  -6.4859  -6.4827  -6.4300  -6.3752  -6.3752
    -6.3582  -6.3040  -6.3040  -1.1175  -1.1175  -1.1153  -1.1032  -1.0930
    -1.0930  -1.0908  -1.0908  -1.0770  -1.0056  -0.9905  -0.9905  -0.9679
    -0.9679  -0.9580  -0.8193  -0.8193  -0.8099  -0.7692  -0.7692  -0.7653
    -0.7482  -0.7482  -0.7333  -0.7237  -0.7237  -0.7094  -0.7044  -0.7044
    -0.7006  -0.6949  -0.6949  -0.6936  -0.6789  -0.6789  -0.6650  -0.6650
    -0.6595  -0.6570  -0.6537  -0.6537  -0.6481  -0.6450  -0.6434  -0.6434
    -0.6331  -0.6331  -0.6293  -0.6254  -0.6216  -0.6216  -0.6179  -0.6165
    -0.6084  -0.6084  -0.6011  -0.6011  -0.5977  -0.5877  -0.5877  -0.5852
    -0.5732  -0.5732  -0.5722  -0.5658  -0.5658  -0.5308  -0.5308  -0.5288
    -0.5204  -0.5187  -0.5187  -0.5067  -0.5062  -0.4956  -0.4956  -0.4927
    -0.4927  -0.4704  -0.4704  -0.4663  -0.4631  -0.4631  -0.4533  -0.4533
    -0.4430  -0.4415  -0.4415  -0.4343  -0.3997  -0.3740  -0.3740  -0.3740
    -0.3701  -0.3701  -0.3529  -0.3525  -0.3525  -0.3435  -0.3435  -0.3357
    -0.3307  -0.3307  -0.3296  -0.3211  -0.3184  -0.3184  -0.3051  -0.2999
    -0.2990  -0.2990  -0.2935  -0.2935  -0.2905  -0.2887  -0.2887  -0.2853
    -0.2755  -0.2755  -0.2594  -0.2594  -0.2535  -0.2454  -0.2454  -0.2420
    -0.2367  -0.2367  -0.2347  -0.2347  -0.2275  -0.2249  -0.2229  -0.2229
    -0.2043  -0.2043  -0.2026  -0.1879  -0.1663  -0.1663  -0.1598  -0.1570
    -0.1570  -0.1433  -0.1179  -0.1179  -0.1042  -0.1017  -0.1017  -0.0767
     0.0407   0.0552   0.0552   0.0594   0.0907   0.0907   0.1254   0.3265
     0.3438   0.3438   0.8922   0.8922   0.9292   0.9396   0.9843   0.9843
     1.0157   1.0157   1.1602   1.3791   1.4022   1.4022   1.4983   1.4983
     1.5386   1.5440   1.5765   1.5765   1.6843   1.6843   2.0317   2.5863
     2.5863   2.6468   2.6620   2.6620   2.6793   2.7093   2.7093   2.7517
     2.7985   2.7985   2.8015   2.8265   2.8433   2.8433   2.9013   2.9013
     2.9238   2.9303   2.9303   2.9574   2.9574   2.9862   2.9905   3.0421
     3.0421   3.0811   3.1763   3.1763   3.1850   3.2937   3.2937   3.2987
     3.6472   3.6472   3.7292   3.8532   3.8532   4.1164   4.1471   4.1471
     4.1892   4.2444   4.2451   4.2451   4.3080   4.3080   4.3528   4.4327
     4.4327   4.4567   4.4567   4.4735   4.4860   4.4860   4.5113   4.5489
     4.5489   4.5790   4.5832   4.5832   4.5887   4.6273   4.6273   4.6388
     5.2253   5.2253   5.2712   5.4037   6.0868   6.0868   6.3986   6.3986
     7.2847   7.9202   8.6548   8.6635   8.6635   8.7876   9.0152   9.0152
     9.2462   9.2462   9.3156   9.5531   9.5919   9.5919   9.7175   9.7175
     9.7922   9.9205   9.9205   9.9867   9.9867   9.9997  10.0467  10.0467
    10.0503  10.0744  10.1525  10.1525  10.1825  10.1950  10.2246  10.2246
    10.3465  10.3465  10.3608  10.6905  10.6905  10.8677  11.1357  11.1382
    11.1382  11.2977  11.2977  11.3612  11.3659  11.3659  11.4414  11.7931
    11.7932  11.8160  11.8370  11.8371  11.8969  11.9856  12.0126  12.0188

     occupation numbers
     1.0000   1.0000   1.0000   1.0000   1.0000   1.0000   1.0000   1.0000
     1.0000   1.0000   1.0000   1.0000   1.0000   1.0000   1.0000   1.0000
     1.0000   1.0000   1.0000   1.0000   1.0000   1.0000   1.0000   1.0000
     1.0000   1.0000   1.0000   1.0000   1.0000   1.0000   1.0000   1.0000
     1.0000   1.0000   1.0000   1.0000   1.0000   1.0000   1.0000   1.0000
     1.0000   1.0000   1.0000   1.0000   1.0000   1.0000   1.0000   1.0000
     1.0000   1.0000   1.0000   1.0000   1.0000   1.0000   1.0000   1.0000
     1.0000   1.0000   1.0000   1.0000   1.0000   1.0000   1.0000   1.0000
     1.0000   1.0000   1.0000   1.0000   1.0000   1.0000   1.0000   1.0000
     1.0000   1.0000   1.0000   1.0000   1.0000   1.0000   1.0000   1.0000
     1.0000   1.0000   1.0000   1.0000   1.0000   1.0000   1.0000   1.0000
     1.0000   1.0000   1.0000   1.0000   1.0000   1.0000   1.0000   1.0000
     1.0000   1.0000   1.0000   1.0000   1.0000   1.0000   1.0000   1.0000
     1.0000   1.0000   1.0000   1.0000   1.0000   1.0000   1.0000   1.0000
     1.0000   1.0000   1.0000   1.0000   1.0000   1.0000   1.0000   1.0000
     1.0000   1.0000   1.0000   1.0000   1.0000   1.0000   1.0000   1.0000
     1.0000   1.0000   1.0000   1.0000   1.0000   1.0000   1.0000   1.0000
     1.0000   1.0000   1.0000   1.0000   1.0000   1.0000   1.0000   1.0000
     1.0000   1.0000   1.0000   1.0000   1.0000   1.0000   1.0000   1.0000
     1.0000   1.0000   1.0000   1.0000   1.0000   1.0000   1.0000   1.0000
     1.0000   1.0000   1.0000   1.0000   1.0000   1.0000   1.0000   1.0000
     1.0000   1.0000   1.0000   1.0000   1.0000   1.0000   1.0000   1.0000
     1.0000   1.0000   1.0000   1.0000   1.0000   1.0000   1.0000   1.0000
     1.0000   1.0000   1.0000   1.0000   1.0000   1.0000   1.0000   1.0000
     1.0000   1.0000   1.0000   1.0000   1.0000   1.0000   1.0000   1.0000
     1.0000   1.0000   1.0000   1.0000   1.0000   1.0000   1.0000   1.0000
     1.0000   1.0000   1.0000   1.0000   1.0000   1.0000   1.0000   1.0000
     1.0000   1.0000   1.0000   1.0000   1.0000   1.0000   1.0000   1.0000
     1.0000   1.0000   1.0000   1.0000   1.0000   1.0000   1.0000   1.0000
     1.0000   1.0000   1.0000   1.0000   1.0000   1.0000   1.0000   1.0000
     1.0000   1.0000   1.0000   1.0000   1.0000   1.0000   1.0000   1.0000
     1.0000   1.0000   1.0000   1.0000   1.0000   1.0000   1.0000   1.0000
     1.0000   1.0000   1.0000   1.0000   1.0000   1.0000   1.0000   1.0000
     1.0000   1.0000   1.0000   1.0000   1.0000   1.0000   1.0000   1.0000
     1.0000   1.0000   1.0000   1.0000   1.0000   1.0000   1.0000   1.0000
     1.0000   1.0000   1.0000   1.0000   1.0000   1.0000   1.0000   1.0000
     1.0000   0.0000   0.0000   0.0000   0.0000   0.0000   0.0000   0.0000
     0.0000   0.0000   0.0000   0.0000   0.0000   0.0000   0.0000   0.0000
     0.0000   0.0000   0.0000   0.0000   0.0000   0.0000   0.0000   0.0000
     0.0000   0.0000   0.0000   0.0000   0.0000   0.0000   0.0000   0.0000
     0.0000   0.0000   0.0000   0.0000   0.0000   0.0000   0.0000   0.0000
     0.0000   0.0000   0.0000   0.0000   0.0000   0.0000   0.0000   0.0000
     0.0000   0.0000   0.0000   0.0000   0.0000   0.0000   0.0000   0.0000

[...]

          k =-0.5000-0.5000-0.5000 (269968 PWs)   bands (ev):

[...]

 ------ SPIN DOWN ----------

[...]

          k =-0.2500 0.0000 0.2500 (269929 PWs)   bands (ev):

[...]

          k = 0.2500-0.2500-0.5000 (269988 PWs)   bands (ev):

   -77.4541 -43.6240 -43.6204 -43.6204  -7.4338  -7.3812  -7.2023  -7.1862
    -7.1591  -7.0835  -6.9907  -6.9122  -6.8596  -6.8371  -6.8054  -6.7812
    -6.7180  -6.7018  -6.6903  -6.6724  -6.6365  -6.6231  -6.6014  -6.5950
    -6.5727  -6.5353  -6.5061  -6.4973  -6.4748  -6.4624  -6.4536  -6.4264
    -6.3986  -6.3384  -6.3172  -1.1146  -1.1139  -1.1131  -1.1003  -1.0938
    -1.0930  -1.0880  -1.0851  -1.0826  -0.9920  -0.9867  -0.9832  -0.9744
    -0.9710  -0.9684  -0.7922  -0.7840  -0.7686  -0.7627  -0.7575  -0.7498
    -0.7435  -0.7399  -0.7338  -0.7312  -0.7219  -0.7172  -0.7164  -0.7068
    -0.7042  -0.7016  -0.6995  -0.6967  -0.6927  -0.6897  -0.6850  -0.6828
    -0.6760  -0.6729  -0.6695  -0.6633  -0.6604  -0.6557  -0.6527  -0.6519
    -0.6486  -0.6451  -0.6419  -0.6353  -0.6328  -0.6308  -0.6224  -0.6159
    -0.6141  -0.6080  -0.6043  -0.6006  -0.5966  -0.5909  -0.5826  -0.5820
    -0.5750  -0.5682  -0.5648  -0.5537  -0.5531  -0.5479  -0.5447  -0.5417
    -0.5332  -0.5313  -0.5283  -0.5212  -0.5183  -0.5115  -0.5059  -0.4959
    -0.4932  -0.4860  -0.4823  -0.4783  -0.4777  -0.4604  -0.4535  -0.4397
    -0.4324  -0.4270  -0.4166  -0.4029  -0.3991  -0.3911  -0.3857  -0.3836
    -0.3756  -0.3653  -0.3572  -0.3533  -0.3506  -0.3498  -0.3425  -0.3343
    -0.3299  -0.3260  -0.3200  -0.3153  -0.3065  -0.3059  -0.2995  -0.2980
    -0.2964  -0.2923  -0.2901  -0.2854  -0.2808  -0.2794  -0.2754  -0.2683
    -0.2668  -0.2644  -0.2594  -0.2564  -0.2471  -0.2458  -0.2433  -0.2372
    -0.2323  -0.2280  -0.2237  -0.2200  -0.2196  -0.2103  -0.2066  -0.2030
    -0.1973  -0.1896  -0.1878  -0.1791  -0.1718  -0.1675  -0.1548  -0.1473
    -0.1422  -0.1349  -0.1222  -0.1167  -0.0955  -0.0848  -0.0634  -0.0502
    -0.0313  -0.0290  -0.0199  -0.0068   0.0202   0.0269   0.5302   0.5946
     0.7233   0.7925   0.8284   0.8587   0.9016   0.9076   0.9407   0.9633
     1.0171   1.0291   1.0489   1.0800   1.0835   1.1245   1.1855   1.4249
     1.4626   1.5156   1.5506   1.6150   1.6751   1.6960   1.7922   2.0991
     2.5081   2.5417   2.5483   2.5525   2.5879   2.6121   2.6778   2.7175
     2.7497   2.7863   2.8123   2.8396   2.8972   3.0000   3.0320   3.1077
     3.2200   3.2970   3.3092   3.3620   3.4106   3.4294   3.4578   3.4848
     3.4919   3.5133   3.5371   3.5607   3.5981   3.6288   3.6535   3.6790
     3.6898   3.7112   3.7160   3.7337   3.7550   3.7644   3.7993   3.8108
     3.8647   3.9541   3.9929   4.0234   4.0661   4.0732   4.1218   4.1472
     4.2080   4.2250   4.2405   4.2912   4.3358   4.3924   4.4104   4.4517
     4.5024   4.6006   4.7579   4.8175   4.8408   4.8726   4.8820   4.9647
     5.0252   5.0604   5.0657   7.5409   7.5486   7.8482   8.4216   8.4316
     8.4759   8.6052   8.7042   8.8992   9.0648   9.1177   9.2181   9.2954
     9.3597   9.3810   9.4058   9.5244   9.5544   9.6245   9.6268   9.6452
     9.6897   9.7516   9.8103   9.8164   9.8364   9.8986   9.9347   9.9738
    10.0328  10.0926  10.1460  10.1605  10.2522  10.2947  10.3272  10.3762
    10.4247  10.5110  10.6164  10.6831  10.7236  10.7806  10.8714  10.9363
    10.9550  11.0602  11.1278  11.1988  11.2649  11.3411  11.4080  11.4333
    11.4800  11.5112  11.5331  11.5745  11.6134  11.6495  11.6775  11.6845

     occupation numbers
     1.0000   1.0000   1.0000   1.0000   1.0000   1.0000   1.0000   1.0000
     1.0000   1.0000   1.0000   1.0000   1.0000   1.0000   1.0000   1.0000
     1.0000   1.0000   1.0000   1.0000   1.0000   1.0000   1.0000   1.0000
     1.0000   1.0000   1.0000   1.0000   1.0000   1.0000   1.0000   1.0000
     1.0000   1.0000   1.0000   1.0000   1.0000   1.0000   1.0000   1.0000
     1.0000   1.0000   1.0000   1.0000   1.0000   1.0000   1.0000   1.0000
     1.0000   1.0000   1.0000   1.0000   1.0000   1.0000   1.0000   1.0000
     1.0000   1.0000   1.0000   1.0000   1.0000   1.0000   1.0000   1.0000
     1.0000   1.0000   1.0000   1.0000   1.0000   1.0000   1.0000   1.0000
     1.0000   1.0000   1.0000   1.0000   1.0000   1.0000   1.0000   1.0000
     1.0000   1.0000   1.0000   1.0000   1.0000   1.0000   1.0000   1.0000
     1.0000   1.0000   1.0000   1.0000   1.0000   1.0000   1.0000   1.0000
     1.0000   1.0000   1.0000   1.0000   1.0000   1.0000   1.0000   1.0000
     1.0000   1.0000   1.0000   1.0000   1.0000   1.0000   1.0000   1.0000
     1.0000   1.0000   1.0000   1.0000   1.0000   1.0000   1.0000   1.0000
     1.0000   1.0000   1.0000   1.0000   1.0000   1.0000   1.0000   1.0000
     1.0000   1.0000   1.0000   1.0000   1.0000   1.0000   1.0000   1.0000
     1.0000   1.0000   1.0000   1.0000   1.0000   1.0000   1.0000   1.0000
     1.0000   1.0000   1.0000   1.0000   1.0000   1.0000   1.0000   1.0000
     1.0000   1.0000   1.0000   1.0000   1.0000   1.0000   1.0000   1.0000
     1.0000   1.0000   1.0000   1.0000   1.0000   1.0000   1.0000   1.0000
     1.0000   1.0000   1.0000   1.0000   1.0000   1.0000   1.0000   1.0000
     1.0000   1.0000   1.0000   1.0000   1.0000   1.0000   1.0000   1.0000
     1.0000   1.0000   1.0000   1.0000   1.0000   1.0000   1.0000   1.0000
     1.0000   1.0000   1.0000   1.0000   1.0000   1.0000   1.0000   1.0000
     1.0000   1.0000   1.0000   1.0000   1.0000   1.0000   1.0000   1.0000
     1.0000   1.0000   1.0000   1.0000   1.0000   1.0000   1.0000   1.0000
     1.0000   1.0000   1.0000   1.0000   1.0000   1.0000   1.0000   1.0000
     1.0000   1.0000   1.0000   1.0000   1.0000   1.0000   1.0000   1.0000
     1.0000   1.0000   1.0000   1.0000   1.0000   1.0000   1.0000   1.0000
     1.0000   1.0000   1.0000   1.0000   1.0000   1.0000   1.0000   1.0000
     1.0000   1.0000   1.0000   1.0000   1.0000   1.0000   1.0000   1.0000
     1.0000   1.0000   1.0000   1.0000   1.0000   1.0000   1.0000   1.0000
     1.0000   1.0000   1.0000   1.0000   1.0000   1.0000   1.0000   1.0000
     1.0000   1.0000   1.0000   1.0000   1.0000   1.0000   1.0000   1.0000
     1.0000   1.0000   1.0000   0.9946   0.9602   0.0000   0.0000   0.0000
     0.0000   0.0000   0.0000   0.0000   0.0000   0.0000   0.0000   0.0000
     0.0000   0.0000   0.0000   0.0000   0.0000   0.0000   0.0000   0.0000
     0.0000   0.0000   0.0000   0.0000   0.0000   0.0000   0.0000   0.0000
     0.0000   0.0000   0.0000   0.0000   0.0000   0.0000   0.0000   0.0000
     0.0000   0.0000   0.0000   0.0000   0.0000   0.0000   0.0000   0.0000
     0.0000   0.0000   0.0000   0.0000   0.0000   0.0000   0.0000   0.0000
     0.0000   0.0000   0.0000   0.0000   0.0000   0.0000   0.0000   0.0000

     the Fermi energy is     7.5655 ev

!    total energy              =   -9943.74037879 Ry
     total all-electron energy =   -138655.479356 Ry
     estimated scf accuracy    <          6.7E-09 Ry
     smearing contrib. (-TS)   =      -0.00008325 Ry
     internal energy E=F+TS    =   -9943.74029554 Ry

     The total energy is F=E-TS. E is the sum of the following terms:
     one-electron contribution =   -2965.28490593 Ry
     hartree contribution      =    2049.18657946 Ry
     xc contribution           =   -1649.53056649 Ry
     ewald contribution        =   -2907.18459211 Ry
     one-center paw contrib.   =   -4470.92681047 Ry
      -> PAW hartree energy AE =     123.18252410 Ry
      -> PAW hartree energy PS =    -122.54040029 Ry
      -> PAW xc energy AE      =    -143.20163897 Ry
      -> PAW xc energy PS      =      47.14041768 Ry
      -> total E_H with PAW    =    2049.82870327 Ry
      -> total E_XC with PAW   =   -1745.59178778 Ry

     total magnetization       =     3.03 Bohr mag/cell
     absolute magnetization    =     3.24 Bohr mag/cell

     convergence has been achieved in  19 iterations

     Writing all to output data dir ./out/Fe_vac_qp1.save/

     General routines

     Parallel routines

     PAW routines

   This run was terminated on:  20:56: 8  10Jul2024

   JOB DONE.