     Program PWSCF v.7.2 starts on  1Jul2024 at  4: 4:44

     Waiting for input...
     Reading input from standard input

     Current dimensions of program PWSCF are:
     Max number of different atomic species (ntypx) = 10
     Max number of k-points (npk) =  40000
     Max angular momentum in pseudopotentials (lmaxx) =  4
     file S.pbe-n-kjpaw_psl.1.0.0.UPF: wavefunction(s)  3S 3P renormalized
     file Zn.pbe-dnl-kjpaw_psl.1.0.0.UPF: wavefunction(s)  4S 3D renormalized
     Found identity + (  0.0000  0.2500  0.2500) symmetry
     This is a supercell, fractional translations are disabled

     K-points division:     npool     =      10
     R & G space division:  proc/nbgrp/npool/nimage =     112
     Subspace diagonalization in iterative solution of the eigenvalue problem:
     one sub-group per band group will be used

     Using Slab Decomposition

     bravais-lattice index     =            1
     lattice parameter (alat)  =      20.5686  a.u.
     unit-cell volume          =    8701.8437 (a.u.)^3
     number of atoms/cell      =           64
     number of atomic types    =            2
     number of electrons       =       576.00
     number of Kohn-Sham states=          345
     kinetic-energy cutoff     =     105.0000  Ry
     charge density cutoff     =     420.0000  Ry
     scf convergence threshold =      1.0E-06
     mixing beta               =       0.7000
     number of iterations used =            8  plain     mixing
     Exchange-correlation= SLA  PW   PBX  PBC
                           (   1   4   3   4   0   0   0)
     Hubbard projectors: ortho-atomic
     Hubbard parameters of DFT+U (Dudarev formulation) in eV:
     U(S-3p) =  7.0000
     U(Zn-3d) =  0.0000

     Internal variables: lda_plus_u = T, lda_plus_u_kind = 0

     celldm(1)=  20.568554  celldm(2)=   0.000000  celldm(3)=   0.000000
     celldm(4)=   0.000000  celldm(5)=   0.000000  celldm(6)=   0.000000

     crystal axes: (cart. coord. in units of alat)
               a(1) = (   1.000000   0.000000   0.000000 )
               a(2) = (   0.000000   1.000000   0.000000 )
               a(3) = (   0.000000   0.000000   1.000000 )

     reciprocal axes: (cart. coord. in units 2 pi/alat)
               b(1) = (  1.000000  0.000000  0.000000 )
               b(2) = (  0.000000  1.000000  0.000000 )
               b(3) = (  0.000000  0.000000  1.000000 )

     PseudoPot. # 1 for S  read from file:
     /arf/home/amuhaymin/pseudo/S.pbe-n-kjpaw_psl.1.0.0.UPF
     MD5 check sum: fb45dfebcf3e72a4e1bd4a866ec2e262
     Pseudo is Projector augmented-wave + core cor, Zval =  6.0
     Generated using &quot;atomic&quot; code by A. Dal Corso  v.6.3
     Shape of augmentation charge: PSQ
     Using radial grid of 1151 points,  6 beta functions with:
                l(1) =   0
                l(2) =   0
                l(3) =   1
                l(4) =   1
                l(5) =   2
                l(6) =   2
     Q(r) pseudized with 0 coefficients

     PseudoPot. # 2 for Zn read from file:
     /arf/home/amuhaymin/pseudo/Zn.pbe-dnl-kjpaw_psl.1.0.0.UPF
     MD5 check sum: c608214d9520ac179f507641260889e3
     Pseudo is Projector augmented-wave + core cor, Zval = 12.0
     Generated using &quot;atomic&quot; code by A. Dal Corso  v.6.2.2
     Shape of augmentation charge: PSQ
     Using radial grid of 1201 points,  6 beta functions with:
                l(1) =   0
                l(2) =   0
                l(3) =   1
                l(4) =   1
                l(5) =   2
                l(6) =   2
     Q(r) pseudized with 0 coefficients

     atomic species   valence    mass     pseudopotential
        S              6.00    32.06500     S ( 1.00)
        Zn            12.00    65.38000     Zn( 1.00)

     24 Sym. Ops. (no inversion) found

                                    s                        frac. trans.

      isym =  1     identity

 cryst.   s( 1) = (     1          0          0      )
                  (     0          1          0      )
                  (     0          0          1      )

 cart.    s( 1) = (  1.0000000  0.0000000  0.0000000 )
                  (  0.0000000  1.0000000  0.0000000 )
                  (  0.0000000  0.0000000  1.0000000 )

      isym =  2     180 deg rotation - cart. axis [0,0,1]

[...]

 cryst.   s( 9) = (     0          1          0      )
                  (     0          0          1      )
                  (     1          0          0      )

 cart.    s( 9) = (  0.0000000  0.0000000  1.0000000 )
                  (  1.0000000  0.0000000  0.0000000 )
                  (  0.0000000  1.0000000  0.0000000 )

[...]

 cryst.   s(10) = (     0         -1          0      )
                  (     0          0         -1      )
                  (     1          0          0      )

 cart.    s(10) = (  0.0000000  0.0000000  1.0000000 )
                  ( -1.0000000  0.0000000  0.0000000 )
                  (  0.0000000 -1.0000000  0.0000000 )

[...]

      isym = 12     120 deg rotation - cart. axis [-1,-1,1]

[...]

      isym = 13     inv. 180 deg rotation - cart. axis [1,1,0]

[...]

      isym = 24     inv.  90 deg rotation - cart. axis [1,0,0]

 cryst.   s(24) = (    -1          0          0      )
                  (     0          0         -1      )
                  (     0          1          0      )

 cart.    s(24) = ( -1.0000000  0.0000000  0.0000000 )
                  (  0.0000000  0.0000000  1.0000000 )
                  (  0.0000000 -1.0000000  0.0000000 )

     point group T_d (-43m)
     there are  5 classes
     the character table:

       E     8C3   3C2   6S4   6s_d
A_1    1.00  1.00  1.00  1.00  1.00
A_2    1.00  1.00  1.00 -1.00 -1.00
E      2.00 -1.00  2.00  0.00  0.00
T_1    3.00  0.00 -1.00  1.00 -1.00
T_2    3.00  0.00 -1.00 -1.00  1.00

     the symmetry operations in each class and the name of the first element:

     E        1
          identity
     8C3      5    7    8    6   12    9   10   11
          120 deg rotation - cart. axis [-1,-1,-1]
     3C2      2    3    4
          180 deg rotation - cart. axis [0,0,1]
     6S4     15   16   20   19   23   24
          inv.  90 deg rotation - cart. axis [0,0,-1]
     6s_d    13   14   17   18   21   22
          inv. 180 deg rotation - cart. axis [1,1,0]

   Cartesian axes

     site n.     atom                  positions (alat units)
         1           Zn  tau(   1) = (   0.0000000   0.0000000   0.0000000  )
         2           Zn  tau(   2) = (   0.0000000   0.2500000   0.2500000  )
         3           Zn  tau(   3) = (   0.2500000   0.0000000   0.2500000  )
         4           Zn  tau(   4) = (   0.2500000   0.2500000   0.0000000  )
         5           S   tau(   5) = (   0.1250000   0.3750000   0.3750000  )
         6           S   tau(   6) = (   0.1250000   0.1250000   0.1250000  )
         7           S   tau(   7) = (   0.3750000   0.3750000   0.1250000  )
         8           S   tau(   8) = (   0.3750000   0.1250000   0.3750000  )
         9           Zn  tau(   9) = (   0.0000000   0.0000000   0.5000000  )
        10           Zn  tau(  10) = (   0.0000000   0.2500000   0.7500000  )
        11           Zn  tau(  11) = (   0.2500000   0.0000000   0.7500000  )
        12           Zn  tau(  12) = (   0.2500000   0.2500000   0.5000000  )
        13           S   tau(  13) = (   0.1250000   0.3750000   0.8750000  )
        14           S   tau(  14) = (   0.1250000   0.1250000   0.6250000  )
        15           S   tau(  15) = (   0.3750000   0.3750000   0.6250000  )
        16           S   tau(  16) = (   0.3750000   0.1250000   0.8750000  )
        17           Zn  tau(  17) = (   0.0000000   0.5000000   0.0000000  )
        18           Zn  tau(  18) = (   0.0000000   0.7500000   0.2500000  )
        19           Zn  tau(  19) = (   0.2500000   0.5000000   0.2500000  )
        20           Zn  tau(  20) = (   0.2500000   0.7500000   0.0000000  )
        21           S   tau(  21) = (   0.1250000   0.8750000   0.3750000  )
        22           S   tau(  22) = (   0.1250000   0.6250000   0.1250000  )
        23           S   tau(  23) = (   0.3750000   0.8750000   0.1250000  )
        24           S   tau(  24) = (   0.3750000   0.6250000   0.3750000  )
        25           Zn  tau(  25) = (   0.0000000   0.5000000   0.5000000  )
        26           Zn  tau(  26) = (   0.0000000   0.7500000   0.7500000  )
        27           Zn  tau(  27) = (   0.2500000   0.5000000   0.7500000  )
        28           Zn  tau(  28) = (   0.2500000   0.7500000   0.5000000  )
        29           S   tau(  29) = (   0.1250000   0.8750000   0.8750000  )
        30           S   tau(  30) = (   0.1250000   0.6250000   0.6250000  )
        31           S   tau(  31) = (   0.3750000   0.8750000   0.6250000  )
        32           S   tau(  32) = (   0.3750000   0.6250000   0.8750000  )
        33           Zn  tau(  33) = (   0.5000000   0.0000000   0.0000000  )
        34           Zn  tau(  34) = (   0.5000000   0.2500000   0.2500000  )
        35           Zn  tau(  35) = (   0.7500000   0.0000000   0.2500000  )
        36           Zn  tau(  36) = (   0.7500000   0.2500000   0.0000000  )
        37           S   tau(  37) = (   0.6250000   0.3750000   0.3750000  )
        38           S   tau(  38) = (   0.6250000   0.1250000   0.1250000  )
        39           S   tau(  39) = (   0.8750000   0.3750000   0.1250000  )
        40           S   tau(  40) = (   0.8750000   0.1250000   0.3750000  )
        41           Zn  tau(  41) = (   0.5000000   0.0000000   0.5000000  )
        42           Zn  tau(  42) = (   0.5000000   0.2500000   0.7500000  )
        43           Zn  tau(  43) = (   0.7500000   0.0000000   0.7500000  )
        44           Zn  tau(  44) = (   0.7500000   0.2500000   0.5000000  )
        45           S   tau(  45) = (   0.6250000   0.3750000   0.8750000  )
        46           S   tau(  46) = (   0.6250000   0.1250000   0.6250000  )
        47           S   tau(  47) = (   0.8750000   0.3750000   0.6250000  )
        48           S   tau(  48) = (   0.8750000   0.1250000   0.8750000  )
        49           Zn  tau(  49) = (   0.5000000   0.5000000   0.0000000  )
        50           Zn  tau(  50) = (   0.5000000   0.7500000   0.2500000  )
        51           Zn  tau(  51) = (   0.7500000   0.5000000   0.2500000  )
        52           Zn  tau(  52) = (   0.7500000   0.7500000   0.0000000  )
        53           S   tau(  53) = (   0.6250000   0.8750000   0.3750000  )
        54           S   tau(  54) = (   0.6250000   0.6250000   0.1250000  )
        55           S   tau(  55) = (   0.8750000   0.8750000   0.1250000  )
        56           S   tau(  56) = (   0.8750000   0.6250000   0.3750000  )
        57           Zn  tau(  57) = (   0.5000000   0.5000000   0.5000000  )
        58           Zn  tau(  58) = (   0.5000000   0.7500000   0.7500000  )
        59           Zn  tau(  59) = (   0.7500000   0.5000000   0.7500000  )
        60           Zn  tau(  60) = (   0.7500000   0.7500000   0.5000000  )
        61           S   tau(  61) = (   0.6250000   0.8750000   0.8750000  )
        62           S   tau(  62) = (   0.6250000   0.6250000   0.6250000  )
[...]
      -0.000  0.000  0.995 -0.000 -0.000
       0.000  0.000 -0.000  0.998  0.000
       0.000 -0.000 -0.000  0.000  0.995
     ------------------------ ATOM   60 ------------------------
     Tr[ns( 60)] =   9.95998
     eigenvalues:
       0.995  0.995  0.995  0.998  0.998
     eigenvectors (columns):
       0.000 -0.000  0.000  0.000  1.000
      -0.707  0.019 -0.707  0.000  0.000
       0.707  0.019 -0.707 -0.000  0.000
      -0.000  0.000  0.000 -1.000  0.000
      -0.000  1.000  0.026  0.000  0.000
     occupation matrix ns (before diag.):
       0.998  0.000  0.000  0.000  0.000
       0.000  0.995  0.000 -0.000 -0.000
       0.000  0.000  0.995  0.000 -0.000
       0.000 -0.000  0.000  0.998 -0.000
       0.000 -0.000 -0.000 -0.000  0.995
     ------------------------ ATOM   61 ------------------------
     Tr[ns( 61)] =   4.77363
     eigenvalues:
       0.796  0.796  0.796
     eigenvectors (columns):
       0.623  0.334  0.707
      -0.472  0.881 -0.000
      -0.623 -0.334  0.707
     occupation matrix ns (before diag.):
       0.796  0.000  0.000
       0.000  0.796 -0.000
       0.000 -0.000  0.796
     ------------------------ ATOM   62 ------------------------
     Tr[ns( 62)] =   4.77362
     eigenvalues:
       0.796  0.796  0.796
     eigenvectors (columns):
       0.762 -0.293 -0.577
       0.635  0.513  0.577
       0.127 -0.807  0.577
     occupation matrix ns (before diag.):
       0.796 -0.000 -0.000
      -0.000  0.796  0.000
      -0.000  0.000  0.796
     ------------------------ ATOM   63 ------------------------
     Tr[ns( 63)] =   4.77363
     eigenvalues:
       0.796  0.796  0.796
     eigenvectors (columns):
      -0.472  0.881 -0.000
       0.623  0.334  0.707
       0.623  0.334 -0.707
     occupation matrix ns (before diag.):
       0.796  0.000  0.000
       0.000  0.796 -0.000
       0.000 -0.000  0.796
     ------------------------ ATOM   64 ------------------------
     Tr[ns( 64)] =   4.77363
     eigenvalues:
       0.796  0.796  0.796
     eigenvectors (columns):
      -0.623  0.334 -0.707
       0.623 -0.334 -0.707
       0.472  0.881  0.000
     occupation matrix ns (before diag.):
       0.796  0.000  0.000
       0.000  0.796 -0.000
       0.000 -0.000  0.796

     Number of occupied Hubbard levels =  471.4755

     HUBBARD ENERGY =    8.0319  (Ry)

     End of self-consistent calculation

          k = 0.0000 0.0000 0.0000 (158355 PWs)   bands (ev):

    -7.0135  -6.4494  -6.4494  -6.4494  -6.4494  -6.4494  -6.4494  -6.0976
    -6.0976  -6.0976  -6.0976  -6.0976  -6.0976  -6.0976  -6.0976  -6.0976
    -6.0976  -6.0976  -6.0976  -6.0774  -6.0774  -6.0774  -6.0774  -5.7418
    -5.7418  -5.7418  -5.7365  -5.7365  -5.7365  -5.7365  -5.7365  -5.7365
    -1.4143  -1.4143  -1.4143  -1.2776  -1.2776  -1.2776  -1.2776  -1.2776
    -1.2776  -1.1611  -1.1611  -1.1611  -1.0621  -1.0621  -1.0621  -1.0621
    -1.0621  -1.0621  -1.0367  -1.0367  -1.0367  -1.0367  -1.0367  -1.0367
    -1.0367  -1.0367  -1.0367  -1.0367  -1.0367  -1.0367  -1.0261  -1.0261
    -1.0261  -1.0261  -1.0261  -1.0261  -1.0261  -1.0261  -0.9968  -0.9968
    -0.9968  -0.9968  -0.9968  -0.9968  -0.9968  -0.9968  -0.9968  -0.9968
    -0.9968  -0.9968  -0.9856  -0.9856  -0.9856  -0.9856  -0.9856  -0.9856
    -0.9856  -0.9856  -0.9856  -0.9856  -0.9856  -0.9856  -0.9381  -0.9381
    -0.9381  -0.9381  -0.9381  -0.9381  -0.9381  -0.9381  -0.9381  -0.9381
    -0.9381  -0.9381  -0.7956  -0.7956  -0.7956  -0.7956  -0.7956  -0.7956
    -0.7564  -0.7564  -0.7564  -0.7564  -0.7564  -0.7564  -0.7395  -0.7395
    -0.7395  -0.7395  -0.7395  -0.7395  -0.6352  -0.6352  -0.6352  -0.6352
    -0.5658  -0.5658  -0.5658  -0.5658  -0.5658  -0.5658  -0.5652  -0.5652
    -0.5652  -0.5652  -0.5652  -0.5652  -0.5483  -0.5483  -0.5483  -0.5483
    -0.5483  -0.5483  -0.5483  -0.5483  -0.5483  -0.5483  -0.5483  -0.5483
    -0.5337  -0.5337  -0.5059  -0.5059  -0.5059  -0.5059  -0.5059  -0.5059
    -0.5059  -0.5059  -0.5001  -0.5001  -0.5001  -0.5001  -0.5001  -0.5001
    -0.4885  -0.4885  -0.4885  -0.4885  -0.4885  -0.4885  -0.4885  -0.4885
    -0.4885  -0.4885  -0.4885  -0.4885  -0.4664  -0.4664  -0.4664  -0.3121
    -0.3121  -0.3121  -0.3121  -0.2848  -0.2848  -0.2848  -0.1167  -0.1167
    -0.1167  -0.1167  -0.1167  -0.1167   0.0923   0.0923   0.0923   0.0923
     0.0923   0.0923   0.2790   0.2790   0.2790   0.8497   0.8497   0.8497
     0.8497   0.8497   0.8497   0.8497   0.8497   0.8497   0.8497   0.8497
     0.8497   1.8002   1.8002   1.8002   1.8002   1.8002   1.8002   1.8050
     1.8050   1.8050   1.8050   1.8050   1.8050   2.0182   2.0182   2.0182
     2.0182   2.0182   2.0182   2.0182   2.0182   2.0182   2.0182   2.0182
     2.0182   2.1094   2.1094   2.1094   2.1094   2.1094   2.1094   2.1500
     2.1500   2.1500   2.1500   2.1500   2.1500   3.0865   3.0865   3.0865
     3.0865   3.0865   3.0865   3.0865   3.0865   3.0865   3.0865   3.0865
     3.0865   3.3667   3.3667   3.3667   3.3667   3.3667   3.3667   3.3667
     3.3667   3.3667   3.3667   3.3667   3.3667   3.4015   3.4015   3.4015
     3.4015   3.4015   3.4015   3.4015   3.4015   4.1581   4.1581   4.1581
     7.7274   8.8069   8.8069   8.8069   8.8069   9.0573   9.0573   9.0573
     9.1840   9.1840   9.1840   9.6391   9.6391   9.6391   9.6391   9.6391
     9.6391  10.0930  10.0930  10.0930  10.0930  10.0930  10.0930  10.0930
    10.0930  10.0930  10.0930  10.0930  10.0930  10.1476  10.1476  10.1476
    10.1476  10.1476  10.1476  10.9347  10.9347  10.9347  10.9347  10.9347
    10.9347  10.9774  10.9774  10.9774  10.9774  10.9774  10.9774  11.8955
    11.8955  11.8955  11.8955  11.8955  11.8955  11.8955  11.8955  11.8955
    11.8955

     occupation numbers
     1.0000   1.0000   1.0000   1.0000   1.0000   1.0000   1.0000   1.0000
     1.0000   1.0000   1.0000   1.0000   1.0000   1.0000   1.0000   1.0000
     1.0000   1.0000   1.0000   1.0000   1.0000   1.0000   1.0000   1.0000
     1.0000   1.0000   1.0000   1.0000   1.0000   1.0000   1.0000   1.0000
     1.0000   1.0000   1.0000   1.0000   1.0000   1.0000   1.0000   1.0000
     1.0000   1.0000   1.0000   1.0000   1.0000   1.0000   1.0000   1.0000
     1.0000   1.0000   1.0000   1.0000   1.0000   1.0000   1.0000   1.0000
     1.0000   1.0000   1.0000   1.0000   1.0000   1.0000   1.0000   1.0000
     1.0000   1.0000   1.0000   1.0000   1.0000   1.0000   1.0000   1.0000
     1.0000   1.0000   1.0000   1.0000   1.0000   1.0000   1.0000   1.0000
     1.0000   1.0000   1.0000   1.0000   1.0000   1.0000   1.0000   1.0000
     1.0000   1.0000   1.0000   1.0000   1.0000   1.0000   1.0000   1.0000
     1.0000   1.0000   1.0000   1.0000   1.0000   1.0000   1.0000   1.0000
     1.0000   1.0000   1.0000   1.0000   1.0000   1.0000   1.0000   1.0000
     1.0000   1.0000   1.0000   1.0000   1.0000   1.0000   1.0000   1.0000
     1.0000   1.0000   1.0000   1.0000   1.0000   1.0000   1.0000   1.0000
     1.0000   1.0000   1.0000   1.0000   1.0000   1.0000   1.0000   1.0000
     1.0000   1.0000   1.0000   1.0000   1.0000   1.0000   1.0000   1.0000
     1.0000   1.0000   1.0000   1.0000   1.0000   1.0000   1.0000   1.0000
     1.0000   1.0000   1.0000   1.0000   1.0000   1.0000   1.0000   1.0000
     1.0000   1.0000   1.0000   1.0000   1.0000   1.0000   1.0000   1.0000
     1.0000   1.0000   1.0000   1.0000   1.0000   1.0000   1.0000   1.0000
     1.0000   1.0000   1.0000   1.0000   1.0000   1.0000   1.0000   1.0000
     1.0000   1.0000   1.0000   1.0000   1.0000   1.0000   1.0000   1.0000
     1.0000   1.0000   1.0000   1.0000   1.0000   1.0000   1.0000   1.0000
     1.0000   1.0000   1.0000   1.0000   1.0000   1.0000   1.0000   1.0000
     1.0000   1.0000   1.0000   1.0000   1.0000   1.0000   1.0000   1.0000
     1.0000   1.0000   1.0000   1.0000   1.0000   1.0000   1.0000   1.0000
     1.0000   1.0000   1.0000   1.0000   1.0000   1.0000   1.0000   1.0000
     1.0000   1.0000   1.0000   1.0000   1.0000   1.0000   1.0000   1.0000
     1.0000   1.0000   1.0000   1.0000   1.0000   1.0000   1.0000   1.0000
     1.0000   1.0000   1.0000   1.0000   1.0000   1.0000   1.0000   1.0000
     1.0000   1.0000   1.0000   1.0000   1.0000   1.0000   1.0000   1.0000
     1.0000   1.0000   1.0000   1.0000   1.0000   1.0000   1.0000   1.0000
     1.0000   1.0000   1.0000   1.0000   1.0000   1.0000   1.0000   1.0000
     1.0000   1.0000   1.0000   1.0000   1.0000   1.0000   1.0000   1.0000
     0.0000   0.0000   0.0000   0.0000   0.0000   0.0000   0.0000   0.0000
     0.0000   0.0000   0.0000   0.0000   0.0000   0.0000   0.0000   0.0000
     0.0000   0.0000   0.0000   0.0000   0.0000   0.0000   0.0000   0.0000
     0.0000   0.0000   0.0000   0.0000   0.0000   0.0000   0.0000   0.0000
     0.0000   0.0000   0.0000   0.0000   0.0000   0.0000   0.0000   0.0000
     0.0000   0.0000   0.0000   0.0000   0.0000   0.0000   0.0000   0.0000
     0.0000   0.0000   0.0000   0.0000   0.0000   0.0000   0.0000   0.0000
     0.0000

[...]

          k = 0.2500-0.5000-0.5000 (158052 PWs)   bands (ev):

[...]

          k =-0.5000-0.5000-0.5000 (158408 PWs)   bands (ev):

    -6.5923  -6.5923  -6.5923  -6.5923  -6.5923  -6.5923  -6.5923  -6.5922
    -5.9205  -5.9205  -5.9205  -5.9205  -5.9205  -5.9205  -5.9205  -5.9205
    -5.9205  -5.9205  -5.9205  -5.9205  -5.9205  -5.9205  -5.9205  -5.9205
    -5.9205  -5.9205  -5.9205  -5.9205  -5.9205  -5.9205  -5.9205  -5.9205
    -1.1616  -1.1616  -1.1616  -1.1616  -1.1616  -1.1616  -1.1616  -1.1615
    -1.1490  -1.1490  -1.1490  -1.1490  -1.1490  -1.1490  -1.1490  -1.1490
    -1.1490  -1.1489  -1.1489  -1.1489  -1.1489  -1.1489  -1.1489  -1.1489
    -1.1489  -1.1489  -1.1489  -1.1489  -1.1489  -1.1489  -1.1489  -1.1489
    -1.0853  -1.0853  -1.0853  -1.0853  -1.0853  -1.0853  -1.0853  -1.0853
    -1.0853  -1.0853  -1.0853  -1.0853  -1.0853  -1.0853  -1.0853  -1.0853
    -0.9012  -0.9012  -0.9012  -0.9012  -0.9012  -0.9012  -0.9012  -0.9012
    -0.9012  -0.9012  -0.9011  -0.9011  -0.9011  -0.9011  -0.9011  -0.9011
    -0.9011  -0.9011  -0.9011  -0.9011  -0.9011  -0.9011  -0.9011  -0.9011
    -0.7858  -0.7858  -0.7858  -0.7858  -0.7858  -0.7858  -0.7858  -0.7858
    -0.7858  -0.7858  -0.7858  -0.7858  -0.7858  -0.7858  -0.7858  -0.7858
    -0.7858  -0.7858  -0.7858  -0.7858  -0.7858  -0.7858  -0.7858  -0.7857
    -0.5327  -0.5327  -0.5327  -0.5327  -0.5327  -0.5327  -0.5327  -0.5327
    -0.5326  -0.5326  -0.5326  -0.5326  -0.5326  -0.5326  -0.5326  -0.5326
    -0.4951  -0.4951  -0.4951  -0.4951  -0.4951  -0.4951  -0.4951  -0.4951
    -0.4951  -0.4950  -0.4950  -0.4950  -0.4950  -0.4950  -0.4950  -0.4950
    -0.4950  -0.4950  -0.4950  -0.4950  -0.4950  -0.4950  -0.4950  -0.4950
    -0.4029  -0.4029  -0.4029  -0.4029  -0.4029  -0.4029  -0.4029  -0.4029
    -0.4029  -0.4029  -0.4029  -0.4029  -0.4028  -0.4028  -0.4028  -0.4028
    -0.4028  -0.4028  -0.4028  -0.4028  -0.4028  -0.4028  -0.4028  -0.4028
     0.3283   0.3283   0.3283   0.3283   0.3283   0.3283   0.3284   0.3284
     0.3284   0.3284   0.3284   0.3284   0.3284   0.3284   0.3284   0.3284
     0.3284   0.3284   0.3284   0.3284   0.3284   0.3284   0.3284   0.3284
     1.8377   1.8377   1.8377   1.8377   1.8377   1.8377   1.8377   1.8377
     2.1249   2.1249   2.1249   2.1249   2.1249   2.1249   2.1249   2.1249
     2.1249   2.1249   2.1249   2.1249   2.1249   2.1249   2.1249   2.1249
     2.1249   2.1249   2.1249   2.1249   2.1249   2.1249   2.1249   2.1249
     2.7449   2.7449   2.7449   2.7449   2.7449   2.7449   2.7449   2.7449
     2.7449   2.7449   2.7449   2.7449   2.7449   2.7449   2.7449   2.7449
     2.7449   2.7449   2.7449   2.7449   2.7449   2.7449   2.7449   2.7449
     3.7568   3.7568   3.7568   3.7568   3.7568   3.7568   3.7568   3.7568
     3.7568   3.7568   3.7568   3.7568   3.7568   3.7568   3.7568   3.7568
     8.9016   8.9016   8.9016   8.9016   8.9016   8.9016   8.9016   8.9016
     9.6836   9.6836   9.6836   9.6836   9.6836   9.6836   9.6836   9.6836
     9.6836   9.6836   9.6836   9.6836   9.6836   9.6836   9.6836   9.6836
     9.6836   9.6836   9.6836   9.6836   9.6836   9.6836   9.6836   9.6836
    11.1591  11.1591  11.1591  11.1591  11.1591  11.1591  11.1591  11.1591
    11.1591  11.1591  11.1591  11.1591  11.1591  11.1591  11.1591  11.1591
    11.1591  11.1591  11.1591  11.1591  11.1591  11.1591  11.1591  11.1591
    12.2428

     occupation numbers
     1.0000   1.0000   1.0000   1.0000   1.0000   1.0000   1.0000   1.0000
     1.0000   1.0000   1.0000   1.0000   1.0000   1.0000   1.0000   1.0000
     1.0000   1.0000   1.0000   1.0000   1.0000   1.0000   1.0000   1.0000
     1.0000   1.0000   1.0000   1.0000   1.0000   1.0000   1.0000   1.0000
     1.0000   1.0000   1.0000   1.0000   1.0000   1.0000   1.0000   1.0000
     1.0000   1.0000   1.0000   1.0000   1.0000   1.0000   1.0000   1.0000
     1.0000   1.0000   1.0000   1.0000   1.0000   1.0000   1.0000   1.0000
     1.0000   1.0000   1.0000   1.0000   1.0000   1.0000   1.0000   1.0000
     1.0000   1.0000   1.0000   1.0000   1.0000   1.0000   1.0000   1.0000
     1.0000   1.0000   1.0000   1.0000   1.0000   1.0000   1.0000   1.0000
     1.0000   1.0000   1.0000   1.0000   1.0000   1.0000   1.0000   1.0000
     1.0000   1.0000   1.0000   1.0000   1.0000   1.0000   1.0000   1.0000
     1.0000   1.0000   1.0000   1.0000   1.0000   1.0000   1.0000   1.0000
     1.0000   1.0000   1.0000   1.0000   1.0000   1.0000   1.0000   1.0000
     1.0000   1.0000   1.0000   1.0000   1.0000   1.0000   1.0000   1.0000
     1.0000   1.0000   1.0000   1.0000   1.0000   1.0000   1.0000   1.0000
     1.0000   1.0000   1.0000   1.0000   1.0000   1.0000   1.0000   1.0000
     1.0000   1.0000   1.0000   1.0000   1.0000   1.0000   1.0000   1.0000
     1.0000   1.0000   1.0000   1.0000   1.0000   1.0000   1.0000   1.0000
     1.0000   1.0000   1.0000   1.0000   1.0000   1.0000   1.0000   1.0000
     1.0000   1.0000   1.0000   1.0000   1.0000   1.0000   1.0000   1.0000
     1.0000   1.0000   1.0000   1.0000   1.0000   1.0000   1.0000   1.0000
     1.0000   1.0000   1.0000   1.0000   1.0000   1.0000   1.0000   1.0000
     1.0000   1.0000   1.0000   1.0000   1.0000   1.0000   1.0000   1.0000
     1.0000   1.0000   1.0000   1.0000   1.0000   1.0000   1.0000   1.0000
     1.0000   1.0000   1.0000   1.0000   1.0000   1.0000   1.0000   1.0000
     1.0000   1.0000   1.0000   1.0000   1.0000   1.0000   1.0000   1.0000
     1.0000   1.0000   1.0000   1.0000   1.0000   1.0000   1.0000   1.0000
     1.0000   1.0000   1.0000   1.0000   1.0000   1.0000   1.0000   1.0000
     1.0000   1.0000   1.0000   1.0000   1.0000   1.0000   1.0000   1.0000
     1.0000   1.0000   1.0000   1.0000   1.0000   1.0000   1.0000   1.0000
     1.0000   1.0000   1.0000   1.0000   1.0000   1.0000   1.0000   1.0000
     1.0000   1.0000   1.0000   1.0000   1.0000   1.0000   1.0000   1.0000
     1.0000   1.0000   1.0000   1.0000   1.0000   1.0000   1.0000   1.0000
     1.0000   1.0000   1.0000   1.0000   1.0000   1.0000   1.0000   1.0000
     1.0000   1.0000   1.0000   1.0000   1.0000   1.0000   1.0000   1.0000
     0.0000   0.0000   0.0000   0.0000   0.0000   0.0000   0.0000   0.0000
     0.0000   0.0000   0.0000   0.0000   0.0000   0.0000   0.0000   0.0000
     0.0000   0.0000   0.0000   0.0000   0.0000   0.0000   0.0000   0.0000
     0.0000   0.0000   0.0000   0.0000   0.0000   0.0000   0.0000   0.0000
     0.0000   0.0000   0.0000   0.0000   0.0000   0.0000   0.0000   0.0000
     0.0000   0.0000   0.0000   0.0000   0.0000   0.0000   0.0000   0.0000
     0.0000   0.0000   0.0000   0.0000   0.0000   0.0000   0.0000   0.0000
     0.0000

     highest occupied, lowest unoccupied level (ev):     4.1581    7.7274

!    total energy              =   -9915.74854537 Ry
     total all-electron energy =   -140491.689133 Ry
     estimated scf accuracy    <       0.00000003 Ry

     The total energy is the sum of the following terms:
     one-electron contribution =   -2750.23858509 Ry
     hartree contribution      =    1960.62270907 Ry
     xc contribution           =   -1677.22509984 Ry
     ewald contribution        =   -2927.19912172 Ry
     Hubbard energy            =       8.03186926 Ry
     one-center paw contrib.   =   -4529.74031703 Ry
      -> PAW hartree energy AE =     122.06512083 Ry
      -> PAW hartree energy PS =    -121.40754702 Ry
      -> PAW xc energy AE      =    -143.13950403 Ry
      -> PAW xc energy PS      =      47.07882950 Ry
      -> total E_H with PAW    =    1961.28028288 Ry
      -> total E_XC with PAW   =   -1773.28577437 Ry

     convergence has been achieved in   9 iterations

     Writing all to output data dir ./out/ZnS_hub.save/

     General routines

     Parallel routines

     Hubbard U routines

     PAW routines

   This run was terminated on:   4: 6:54   1Jul2024

   JOB DONE.