     Program PWSCF v.7.2 starts on 11Jul2024 at 18:56:53

     Reading input from 1.Co_vac_in_ZnS.scf.q0.unrlxd.in

     Current dimensions of program PWSCF are:
     Max number of different atomic species (ntypx) = 10
     Max number of k-points (npk) =  40000
     Max angular momentum in pseudopotentials (lmaxx) =  4
     file S.pbe-n-kjpaw_psl.1.0.0.UPF: wavefunction(s)  3S 3P renormalized
     file Zn.pbe-dnl-kjpaw_psl.1.0.0.UPF: wavefunction(s)  4S 3D renormalized
     file Co.pbe-spn-kjpaw_psl.0.3.1.UPF: wavefunction(s)  3P 3D renormalized

     K-points division:     npool     =       6
     R & G space division:  proc/nbgrp/npool/nimage =     112
     Subspace diagonalization in iterative solution of the eigenvalue problem:
     one sub-group per band group will be used

     Using Slab Decomposition

     bravais-lattice index     =            1
     lattice parameter (alat)  =      20.5686  a.u.
     unit-cell volume          =    8701.8437 (a.u.)^3
     number of atoms/cell      =           63
     number of atomic types    =            3
     number of electrons       =       575.00
     number of Kohn-Sham states=          346
     kinetic-energy cutoff     =     150.0000  Ry
     charge density cutoff     =     600.0000  Ry
     scf convergence threshold =      1.0E-08
     mixing beta               =       0.7000
     number of iterations used =            8  plain     mixing
     Exchange-correlation= SLA  PW   PBX  PBC
                           (   1   4   3   4   0   0   0)

     celldm(1)=  20.568554  celldm(2)=   0.000000  celldm(3)=   0.000000
     celldm(4)=   0.000000  celldm(5)=   0.000000  celldm(6)=   0.000000

     crystal axes: (cart. coord. in units of alat)
               a(1) = (   1.000000   0.000000   0.000000 )
               a(2) = (   0.000000   1.000000   0.000000 )
               a(3) = (   0.000000   0.000000   1.000000 )

     reciprocal axes: (cart. coord. in units 2 pi/alat)
               b(1) = (  1.000000  0.000000  0.000000 )
               b(2) = (  0.000000  1.000000  0.000000 )
               b(3) = (  0.000000  0.000000  1.000000 )

     PseudoPot. # 1 for S  read from file:
     /arf/home/amuhaymin/pseudo/S.pbe-n-kjpaw_psl.1.0.0.UPF
     MD5 check sum: fb45dfebcf3e72a4e1bd4a866ec2e262
     Pseudo is Projector augmented-wave + core cor, Zval =  6.0
     Generated using &quot;atomic&quot; code by A. Dal Corso  v.6.3
     Shape of augmentation charge: PSQ
     Using radial grid of 1151 points,  6 beta functions with:
                l(1) =   0
                l(2) =   0
                l(3) =   1
                l(4) =   1
                l(5) =   2
                l(6) =   2
     Q(r) pseudized with 0 coefficients

     PseudoPot. # 2 for Zn read from file:
     /arf/home/amuhaymin/pseudo/Zn.pbe-dnl-kjpaw_psl.1.0.0.UPF
     MD5 check sum: c608214d9520ac179f507641260889e3
     Pseudo is Projector augmented-wave + core cor, Zval = 12.0
     Generated using &quot;atomic&quot; code by A. Dal Corso  v.6.2.2
     Shape of augmentation charge: PSQ
     Using radial grid of 1201 points,  6 beta functions with:
                l(1) =   0
                l(2) =   0
                l(3) =   1
                l(4) =   1
                l(5) =   2
                l(6) =   2
     Q(r) pseudized with 0 coefficients

     PseudoPot. # 3 for Co read from file:
     /arf/home/amuhaymin/pseudo/Co.pbe-spn-kjpaw_psl.0.3.1.UPF
     MD5 check sum: b0a1ad65bf214e88c1f3d33b20c7d919
     Pseudo is Projector augmented-wave + core cor, Zval = 17.0
     Generated using &quot;atomic&quot; code by A. Dal Corso  v.6.2.2
     Shape of augmentation charge: PSQ
     Using radial grid of 1193 points,  6 beta functions with:
                l(1) =   0
                l(2) =   0
                l(3) =   1
                l(4) =   1
                l(5) =   2
                l(6) =   2
     Q(r) pseudized with 0 coefficients

     atomic species   valence    mass     pseudopotential
        S              6.00    32.06500     S ( 1.00)
        Zn            12.00    65.38000     Zn( 1.00)
        Co            17.00    63.54600     Co( 1.00)

     Starting magnetic structure
     atomic species   magnetization
        S            0.000
        Zn           0.000
        Co           0.176

      6 Sym. Ops. (no inversion) found

                                    s                        frac. trans.

      isym =  1     identity

 cryst.   s( 1) = (     1          0          0      )
                  (     0          1          0      )
                  (     0          0          1      )

 cart.    s( 1) = (  1.0000000  0.0000000  0.0000000 )
                  (  0.0000000  1.0000000  0.0000000 )
                  (  0.0000000  0.0000000  1.0000000 )

      isym =  2     120 deg rotation - cart. axis [-1,-1,-1]

[...]

      isym =  3     120 deg rotation - cart. axis [1,1,1]

[...]

      isym =  4     inv. 180 deg rotation - cart. axis [1,-1,0]

[...]

      isym =  6     inv. 180 deg rotation - cart. axis [0,1,-1]

 cryst.   s( 6) = (     1          0          0      )
                  (     0          0          1      )
                  (     0          1          0      )

 cart.    s( 6) = (  1.0000000  0.0000000  0.0000000 )
                  (  0.0000000  0.0000000  1.0000000 )
                  (  0.0000000  1.0000000  0.0000000 )

     point group C_3v (3m)
     there are  3 classes
     the character table:

       E     2C3   3s_v
A_1    1.00  1.00  1.00
A_2    1.00  1.00 -1.00
E      2.00 -1.00  0.00

     the symmetry operations in each class and the name of the first element:

     E        1
          identity
     2C3      2    3
          120 deg rotation - cart. axis [-1,-1,-1]
     3s_v     4    5    6
          inv. 180 deg rotation - cart. axis [1,-1,0]

   Cartesian axes

     site n.     atom                  positions (alat units)
         1           Zn  tau(   1) = (   0.0000000   0.0000000   0.0000000  )
         2           Zn  tau(   2) = (   0.0000000   0.2500000   0.2500000  )
         3           Zn  tau(   3) = (   0.2500000   0.0000000   0.2500000  )
         4           Zn  tau(   4) = (   0.2500000   0.2500000   0.0000000  )
         5           S   tau(   5) = (   0.1250000   0.3750000   0.3750000  )
         6           S   tau(   6) = (   0.1250000   0.1250000   0.1250000  )
         7           S   tau(   7) = (   0.3750000   0.3750000   0.1250000  )
         8           S   tau(   8) = (   0.3750000   0.1250000   0.3750000  )
         9           Zn  tau(   9) = (   0.0000000   0.0000000   0.5000000  )
        10           Zn  tau(  10) = (   0.0000000   0.2500000   0.7500000  )
        11           Zn  tau(  11) = (   0.2500000   0.0000000   0.7500000  )
        12           Zn  tau(  12) = (   0.2500000   0.2500000   0.5000000  )
        13           S   tau(  13) = (   0.1250000   0.3750000   0.8750000  )
        14           S   tau(  14) = (   0.1250000   0.1250000   0.6250000  )
        15           S   tau(  15) = (   0.3750000   0.3750000   0.6250000  )
        16           S   tau(  16) = (   0.3750000   0.1250000   0.8750000  )
        17           Zn  tau(  17) = (   0.0000000   0.5000000   0.0000000  )
        18           Zn  tau(  18) = (   0.0000000   0.7500000   0.2500000  )
        19           Zn  tau(  19) = (   0.2500000   0.5000000   0.2500000  )
        20           Zn  tau(  20) = (   0.2500000   0.7500000   0.0000000  )
        21           S   tau(  21) = (   0.1250000   0.8750000   0.3750000  )
        22           S   tau(  22) = (   0.1250000   0.6250000   0.1250000  )
        23           S   tau(  23) = (   0.3750000   0.8750000   0.1250000  )
        24           S   tau(  24) = (   0.3750000   0.6250000   0.3750000  )
        25           Zn  tau(  25) = (   0.0000000   0.5000000   0.5000000  )
        26           Zn  tau(  26) = (   0.0000000   0.7500000   0.7500000  )
        27           Zn  tau(  27) = (   0.2500000   0.5000000   0.7500000  )
        28           Zn  tau(  28) = (   0.2500000   0.7500000   0.5000000  )
        29           S   tau(  29) = (   0.1250000   0.8750000   0.8750000  )
        30           S   tau(  30) = (   0.1250000   0.6250000   0.6250000  )
        31           S   tau(  31) = (   0.3750000   0.8750000   0.6250000  )
        32           S   tau(  32) = (   0.3750000   0.6250000   0.8750000  )
        33           Zn  tau(  33) = (   0.5000000   0.0000000   0.0000000  )
        34           Zn  tau(  34) = (   0.5000000   0.2500000   0.2500000  )
        35           Zn  tau(  35) = (   0.7500000   0.0000000   0.2500000  )
        36           Zn  tau(  36) = (   0.7500000   0.2500000   0.0000000  )
        37           S   tau(  37) = (   0.6250000   0.3750000   0.3750000  )
        38           S   tau(  38) = (   0.6250000   0.1250000   0.1250000  )
        39           S   tau(  39) = (   0.8750000   0.3750000   0.1250000  )
        40           S   tau(  40) = (   0.8750000   0.1250000   0.3750000  )
        41           Zn  tau(  41) = (   0.5000000   0.0000000   0.5000000  )
        42           Zn  tau(  42) = (   0.5000000   0.2500000   0.7500000  )
        43           Zn  tau(  43) = (   0.7500000   0.0000000   0.7500000  )
        44           Zn  tau(  44) = (   0.7500000   0.2500000   0.5000000  )
        45           S   tau(  45) = (   0.6250000   0.3750000   0.8750000  )
        46           S   tau(  46) = (   0.6250000   0.1250000   0.6250000  )
        47           S   tau(  47) = (   0.8750000   0.3750000   0.6250000  )
        48           S   tau(  48) = (   0.8750000   0.1250000   0.8750000  )
        49           Zn  tau(  49) = (   0.5000000   0.5000000   0.0000000  )
        50           Zn  tau(  50) = (   0.5000000   0.7500000   0.2500000  )
        51           Zn  tau(  51) = (   0.7500000   0.5000000   0.2500000  )
        52           Zn  tau(  52) = (   0.7500000   0.7500000   0.0000000  )
        53           S   tau(  53) = (   0.6250000   0.8750000   0.3750000  )
        54           S   tau(  54) = (   0.6250000   0.6250000   0.1250000  )
        55           S   tau(  55) = (   0.8750000   0.8750000   0.1250000  )
        56           S   tau(  56) = (   0.8750000   0.6250000   0.3750000  )
        57           Co  tau(  57) = (   0.5000000   0.5000000   0.5000000  )
        58           Zn  tau(  58) = (   0.5000000   0.7500000   0.7500000  )
        59           Zn  tau(  59) = (   0.7500000   0.5000000   0.7500000  )
        60           Zn  tau(  60) = (   0.7500000   0.7500000   0.5000000  )
        61           S   tau(  61) = (   0.6250000   0.8750000   0.8750000  )
        62           S   tau(  62) = (   0.8750000   0.8750000   0.6250000  )
        63           S   tau(  63) = (   0.8750000   0.6250000   0.8750000  )

   Crystallographic axes

     site n.     atom                  positions (cryst. coord.)
         1           Zn  tau(   1) = (  0.0000000  0.0000000  0.0000000  )
         2           Zn  tau(   2) = (  0.0000000  0.2500000  0.2500000  )
         3           Zn  tau(   3) = (  0.2500000  0.0000000  0.2500000  )
         4           Zn  tau(   4) = (  0.2500000  0.2500000  0.0000000  )
[...]
     atom  28 (R=0.089)  charge= 10.1599  magn=  0.0025
     atom  29 (R=0.089)  charge=  3.9935  magn=  0.0006
     atom  30 (R=0.089)  charge=  3.9933  magn= -0.0000
     atom  31 (R=0.089)  charge=  3.9894  magn=  0.0065
     atom  32 (R=0.089)  charge=  3.9894  magn=  0.0065
     atom  33 (R=0.089)  charge= 10.1602  magn=  0.0022
     atom  34 (R=0.089)  charge= 10.1595  magn=  0.0020
     atom  35 (R=0.089)  charge= 10.1597  magn=  0.0009
     atom  36 (R=0.089)  charge= 10.1597  magn=  0.0009
     atom  37 (R=0.089)  charge=  3.9848  magn=  0.0388
     atom  38 (R=0.089)  charge=  3.9924  magn=  0.0056
     atom  39 (R=0.089)  charge=  3.9935  magn=  0.0029
     atom  40 (R=0.089)  charge=  3.9935  magn=  0.0029
     atom  41 (R=0.089)  charge= 10.1594  magn=  0.0000
     atom  42 (R=0.089)  charge= 10.1599  magn=  0.0025
     atom  43 (R=0.089)  charge= 10.1595  magn= -0.0000
     atom  44 (R=0.089)  charge= 10.1599  magn=  0.0025
     atom  45 (R=0.089)  charge=  3.9894  magn=  0.0065
     atom  46 (R=0.089)  charge=  3.9933  magn= -0.0000
     atom  47 (R=0.089)  charge=  3.9894  magn=  0.0065
     atom  48 (R=0.089)  charge=  3.9935  magn=  0.0006
     atom  49 (R=0.089)  charge= 10.1594  magn=  0.0000
     atom  50 (R=0.089)  charge= 10.1599  magn=  0.0025
     atom  51 (R=0.089)  charge= 10.1599  magn=  0.0025
     atom  52 (R=0.089)  charge= 10.1595  magn= -0.0000
     atom  53 (R=0.089)  charge=  3.9894  magn=  0.0065
     atom  54 (R=0.089)  charge=  3.9933  magn= -0.0000
     atom  55 (R=0.089)  charge=  3.9935  magn=  0.0006
     atom  56 (R=0.089)  charge=  3.9894  magn=  0.0065
     atom  57 (R=0.089)  charge= 15.1150  magn=  2.0931
     atom  58 (R=0.089)  charge= 10.1219  magn=  0.0183
     atom  59 (R=0.089)  charge= 10.1219  magn=  0.0183
     atom  60 (R=0.089)  charge= 10.1219  magn=  0.0183
     atom  61 (R=0.089)  charge=  3.9898  magn=  0.0093
     atom  62 (R=0.089)  charge=  3.9898  magn=  0.0093
     atom  63 (R=0.089)  charge=  3.9898  magn=  0.0093

     End of self-consistent calculation

 ------ SPIN UP ------------

          k = 0.0000 0.0000 0.0000 (269825 PWs)   bands (ev):

   -89.3677 -52.7377 -52.7377 -52.4971  -7.5825  -7.0819  -7.0819  -7.0626
    -7.0626  -7.0487  -6.9819  -6.7798  -6.7798  -6.7744  -6.7646  -6.7588
    -6.7588  -6.7383  -6.7383  -6.7272  -6.7272  -6.7246  -6.7221  -6.6735
    -6.6735  -6.6398  -6.4786  -6.4507  -6.4507  -6.4303  -6.4131  -6.4061
    -6.4061  -6.3363  -6.3363  -0.8704  -0.8662  -0.8662  -0.8513  -0.8499
    -0.8499  -0.8222  -0.8222  -0.8120  -0.8082  -0.8066  -0.8066  -0.7252
    -0.7252  -0.7250  -0.7218  -0.7218  -0.7212  -0.7132  -0.7132  -0.7094
    -0.7079  -0.7079  -0.7052  -0.7025  -0.7025  -0.7003  -0.6971  -0.6971
    -0.6969  -0.6919  -0.6919  -0.6908  -0.6906  -0.6898  -0.6898  -0.6812
    -0.6808  -0.6808  -0.6787  -0.6787  -0.6746  -0.6714  -0.6714  -0.6690
    -0.6662  -0.6632  -0.6632  -0.6594  -0.6594  -0.6528  -0.6517  -0.6517
    -0.6511  -0.6395  -0.6395  -0.6347  -0.5961  -0.5941  -0.5941  -0.5752
    -0.5752  -0.5537  -0.5488  -0.5488  -0.5472  -0.5411  -0.5370  -0.5370
    -0.5316  -0.5316  -0.5263  -0.5263  -0.5255  -0.5082  -0.5082  -0.4981
    -0.4909  -0.4894  -0.4894  -0.4776  -0.4360  -0.4360  -0.4040  -0.4026
    -0.3974  -0.3974  -0.3943  -0.3943  -0.3930  -0.3869  -0.3869  -0.3826
    -0.3826  -0.3799  -0.3766  -0.3740  -0.3738  -0.3738  -0.3695  -0.3695
    -0.3632  -0.3602  -0.3602  -0.3568  -0.3505  -0.3505  -0.3464  -0.3453
    -0.3450  -0.3450  -0.3335  -0.3335  -0.3305  -0.3274  -0.3274  -0.3127
    -0.3114  -0.3114  -0.3105  -0.3105  -0.3053  -0.3053  -0.3023  -0.3005
    -0.2938  -0.2938  -0.2879  -0.2876  -0.2876  -0.2838  -0.2838  -0.2763
    -0.2670  -0.2620  -0.2620  -0.2618  -0.2575  -0.2575  -0.2465  -0.2465
    -0.2456  -0.2271  -0.1623  -0.1623  -0.1378  -0.1335  -0.1335  -0.1205
    -0.0216   0.0091   0.0091   0.0412   0.0460   0.0460   0.2463   0.3175
     0.3273   0.3273   0.8966   0.8966   0.9122   0.9135   0.9253   0.9253
     1.0354   1.0354   1.1022   1.2649   1.4223   1.4223   1.5128   1.5128
     1.5248   1.5260   1.5323   1.5323   1.7013   1.7013   1.9853   2.5438
     2.5438   2.6189   2.7195   2.7195   2.7467   2.7515   2.7539   2.7539
     2.7587   2.7777   2.7777   2.8242   2.8310   2.8310   2.8946   2.8946
     2.9233   2.9233   2.9283   2.9412   2.9412   2.9532   2.9665   2.9859
     2.9859   3.0702   3.1326   3.1326   3.1842   3.2307   3.2307   3.2541
     3.4981   3.4981   3.5782   3.7373   3.7373   4.1455   4.1978   4.1987
     4.1987   4.2079   4.2192   4.2192   4.2767   4.2767   4.3323   4.3323
     4.3376   4.4246   4.4246   4.5079   4.5087   4.5087   4.5125   4.5245
     4.5245   4.5367   4.5452   4.5452   4.5482   4.5547   4.5547   4.5798
     4.6814   5.1117   5.1117   5.1765   5.1765   5.3579   5.5570   5.5570
     6.2323   7.7452   8.4854   8.4854   8.7365   8.7859   8.7859   8.8124
     8.9216   8.9216   9.1088   9.3135   9.5305   9.5349   9.5349   9.8570
     9.8570   9.9744   9.9744   9.9752   9.9995  10.0119  10.0119  10.0173
    10.0274  10.0274  10.1686  10.1770  10.1770  10.1800  10.1800  10.2070
    10.2070  10.2138  10.2608  10.6194  10.6194  10.6858  11.0946  11.1775
    11.1775  11.2004  11.2004  11.3190  11.3292  11.3322  11.3322  11.6693
    11.6693  11.6975  11.8367  11.8638  11.8639  11.8747  12.0405  12.0435
    12.0437  12.0615

     occupation numbers
     1.0000   1.0000   1.0000   1.0000   1.0000   1.0000   1.0000   1.0000
     1.0000   1.0000   1.0000   1.0000   1.0000   1.0000   1.0000   1.0000
     1.0000   1.0000   1.0000   1.0000   1.0000   1.0000   1.0000   1.0000
     1.0000   1.0000   1.0000   1.0000   1.0000   1.0000   1.0000   1.0000
     1.0000   1.0000   1.0000   1.0000   1.0000   1.0000   1.0000   1.0000
     1.0000   1.0000   1.0000   1.0000   1.0000   1.0000   1.0000   1.0000
     1.0000   1.0000   1.0000   1.0000   1.0000   1.0000   1.0000   1.0000
     1.0000   1.0000   1.0000   1.0000   1.0000   1.0000   1.0000   1.0000
     1.0000   1.0000   1.0000   1.0000   1.0000   1.0000   1.0000   1.0000
     1.0000   1.0000   1.0000   1.0000   1.0000   1.0000   1.0000   1.0000
     1.0000   1.0000   1.0000   1.0000   1.0000   1.0000   1.0000   1.0000
     1.0000   1.0000   1.0000   1.0000   1.0000   1.0000   1.0000   1.0000
     1.0000   1.0000   1.0000   1.0000   1.0000   1.0000   1.0000   1.0000
     1.0000   1.0000   1.0000   1.0000   1.0000   1.0000   1.0000   1.0000
     1.0000   1.0000   1.0000   1.0000   1.0000   1.0000   1.0000   1.0000
     1.0000   1.0000   1.0000   1.0000   1.0000   1.0000   1.0000   1.0000
     1.0000   1.0000   1.0000   1.0000   1.0000   1.0000   1.0000   1.0000
     1.0000   1.0000   1.0000   1.0000   1.0000   1.0000   1.0000   1.0000
     1.0000   1.0000   1.0000   1.0000   1.0000   1.0000   1.0000   1.0000
     1.0000   1.0000   1.0000   1.0000   1.0000   1.0000   1.0000   1.0000
     1.0000   1.0000   1.0000   1.0000   1.0000   1.0000   1.0000   1.0000
     1.0000   1.0000   1.0000   1.0000   1.0000   1.0000   1.0000   1.0000
     1.0000   1.0000   1.0000   1.0000   1.0000   1.0000   1.0000   1.0000
     1.0000   1.0000   1.0000   1.0000   1.0000   1.0000   1.0000   1.0000
     1.0000   1.0000   1.0000   1.0000   1.0000   1.0000   1.0000   1.0000
     1.0000   1.0000   1.0000   1.0000   1.0000   1.0000   1.0000   1.0000
     1.0000   1.0000   1.0000   1.0000   1.0000   1.0000   1.0000   1.0000
     1.0000   1.0000   1.0000   1.0000   1.0000   1.0000   1.0000   1.0000
     1.0000   1.0000   1.0000   1.0000   1.0000   1.0000   1.0000   1.0000
     1.0000   1.0000   1.0000   1.0000   1.0000   1.0000   1.0000   1.0000
     1.0000   1.0000   1.0000   1.0000   1.0000   1.0000   1.0000   1.0000
     1.0000   1.0000   1.0000   1.0000   1.0000   1.0000   1.0000   1.0000
     1.0000   1.0000   1.0000   1.0000   1.0000   1.0000   1.0000   1.0000
     1.0000   1.0000   1.0000   1.0000   1.0000   1.0000   1.0000   1.0000
     1.0000   1.0000   1.0000   1.0000   1.0000   1.0000   1.0000   1.0000
     1.0000   1.0000   1.0000   1.0000   1.0000   1.0000   1.0000   1.0000
     1.0000   0.0000   0.0000   0.0000   0.0000   0.0000   0.0000   0.0000
     0.0000   0.0000   0.0000   0.0000   0.0000   0.0000   0.0000   0.0000
     0.0000   0.0000   0.0000   0.0000   0.0000   0.0000   0.0000   0.0000
     0.0000   0.0000   0.0000   0.0000   0.0000   0.0000   0.0000   0.0000
     0.0000   0.0000   0.0000   0.0000   0.0000   0.0000   0.0000   0.0000
     0.0000   0.0000   0.0000   0.0000   0.0000   0.0000   0.0000   0.0000
     0.0000   0.0000   0.0000   0.0000   0.0000   0.0000   0.0000   0.0000
     0.0000   0.0000

[...]

          k =-0.5000-0.5000-0.5000 (269968 PWs)   bands (ev):

[...]

 ------ SPIN DOWN ----------

[...]

          k =-0.2500 0.0000 0.2500 (269929 PWs)   bands (ev):

[...]

          k = 0.2500-0.2500-0.5000 (269988 PWs)   bands (ev):

   -86.8656 -50.2314 -50.2314 -50.1774  -7.3863  -7.3424  -7.1451  -7.1365
    -7.1124  -7.0658  -6.9544  -6.8890  -6.7686  -6.7588  -6.7566  -6.7163
    -6.7089  -6.6793  -6.6505  -6.6403  -6.6165  -6.5999  -6.5897  -6.5728
    -6.5550  -6.5505  -6.5293  -6.5046  -6.5011  -6.4871  -6.4794  -6.4558
    -6.4239  -6.3498  -6.3296  -0.8288  -0.8121  -0.8025  -0.7990  -0.7977
    -0.7899  -0.7875  -0.7859  -0.7819  -0.7782  -0.7729  -0.7715  -0.7653
    -0.7633  -0.7597  -0.7534  -0.7488  -0.7434  -0.7426  -0.7411  -0.7375
    -0.7360  -0.7340  -0.7311  -0.7298  -0.7280  -0.7261  -0.7226  -0.7204
    -0.7186  -0.7142  -0.7122  -0.7097  -0.7082  -0.7052  -0.7046  -0.7010
    -0.6969  -0.6965  -0.6919  -0.6885  -0.6768  -0.6729  -0.6674  -0.6646
    -0.6621  -0.6552  -0.6529  -0.6487  -0.6434  -0.6398  -0.6332  -0.6270
    -0.6237  -0.6159  -0.6121  -0.6085  -0.6044  -0.5977  -0.5955  -0.5908
    -0.5825  -0.5790  -0.5773  -0.5715  -0.5691  -0.5643  -0.5575  -0.5529
    -0.5484  -0.5387  -0.5376  -0.5257  -0.5107  -0.4919  -0.4836  -0.4834
    -0.4794  -0.4745  -0.4648  -0.4617  -0.4598  -0.4533  -0.4454  -0.4339
    -0.4284  -0.4135  -0.4075  -0.4044  -0.3950  -0.3860  -0.3826  -0.3760
    -0.3685  -0.3669  -0.3617  -0.3592  -0.3581  -0.3549  -0.3470  -0.3443
    -0.3418  -0.3389  -0.3356  -0.3343  -0.3332  -0.3326  -0.3293  -0.3282
    -0.3268  -0.3228  -0.3221  -0.3208  -0.3177  -0.3163  -0.3158  -0.3137
    -0.3113  -0.3071  -0.3031  -0.3005  -0.2996  -0.2970  -0.2942  -0.2930
    -0.2909  -0.2854  -0.2823  -0.2818  -0.2771  -0.2758  -0.2724  -0.2679
    -0.2674  -0.2644  -0.2575  -0.2559  -0.2459  -0.2450  -0.2295  -0.2250
    -0.2038  -0.1712  -0.1573  -0.1487  -0.1324  -0.1218  -0.1006  -0.0881
    -0.0836  -0.0803  -0.0707  -0.0491  -0.0404  -0.0291   0.5675   0.6300
     0.7695   0.8111   0.8456   0.8644   0.8875   0.9022   0.9415   0.9623
     1.0037   1.0106   1.0184   1.0384   1.0695   1.0927   1.1875   1.3803
     1.4290   1.5176   1.5651   1.6035   1.6413   1.7043   1.8231   2.0497
     2.4739   2.5661   2.5872   2.5927   2.6008   2.6154   2.6684   2.7447
     2.7563   2.7954   2.8148   2.8315   2.9098   2.9511   2.9933   3.0390
     3.2510   3.2844   3.3519   3.3795   3.4382   3.4454   3.4733   3.4846
     3.5139   3.5179   3.5361   3.5757   3.6026   3.6247   3.6387   3.6662
     3.6727   3.6832   3.7029   3.7119   3.7403   3.7545   3.7833   3.7919
     3.8031   3.9276   3.9492   4.0025   4.0162   4.0549   4.0968   4.1605
     4.1918   4.2000   4.2037   4.2876   4.3480   4.3841   4.3952   4.4066
     4.4575   4.5749   4.7387   4.7984   4.8012   4.8668   4.8785   4.9260
     5.0018   5.0243   5.0613   6.1858   6.1951   6.4099   7.0823   7.4200
     7.4462   8.3433   8.4299   8.9126   8.9595   9.0790   9.1287   9.2567
     9.3451   9.3789   9.4556   9.5355   9.5625   9.6104   9.6294   9.6380
     9.6884   9.7483   9.7633   9.8115   9.8217   9.8664   9.8803   9.9518
     9.9966  10.0092  10.0683  10.0958  10.1189  10.1951  10.2174  10.3290
    10.3570  10.4201  10.4604  10.6219  10.7111  10.7739  10.7848  10.8393
    10.8634  10.9593  11.0446  11.1531  11.2345  11.2869  11.3648  11.4306
    11.4673  11.5000  11.5019  11.5345  11.5871  11.6072  11.6279  11.6360
    11.6562  11.6888

     occupation numbers
     1.0000   1.0000   1.0000   1.0000   1.0000   1.0000   1.0000   1.0000
     1.0000   1.0000   1.0000   1.0000   1.0000   1.0000   1.0000   1.0000
     1.0000   1.0000   1.0000   1.0000   1.0000   1.0000   1.0000   1.0000
     1.0000   1.0000   1.0000   1.0000   1.0000   1.0000   1.0000   1.0000
     1.0000   1.0000   1.0000   1.0000   1.0000   1.0000   1.0000   1.0000
     1.0000   1.0000   1.0000   1.0000   1.0000   1.0000   1.0000   1.0000
     1.0000   1.0000   1.0000   1.0000   1.0000   1.0000   1.0000   1.0000
     1.0000   1.0000   1.0000   1.0000   1.0000   1.0000   1.0000   1.0000
     1.0000   1.0000   1.0000   1.0000   1.0000   1.0000   1.0000   1.0000
     1.0000   1.0000   1.0000   1.0000   1.0000   1.0000   1.0000   1.0000
     1.0000   1.0000   1.0000   1.0000   1.0000   1.0000   1.0000   1.0000
     1.0000   1.0000   1.0000   1.0000   1.0000   1.0000   1.0000   1.0000
     1.0000   1.0000   1.0000   1.0000   1.0000   1.0000   1.0000   1.0000
     1.0000   1.0000   1.0000   1.0000   1.0000   1.0000   1.0000   1.0000
     1.0000   1.0000   1.0000   1.0000   1.0000   1.0000   1.0000   1.0000
     1.0000   1.0000   1.0000   1.0000   1.0000   1.0000   1.0000   1.0000
     1.0000   1.0000   1.0000   1.0000   1.0000   1.0000   1.0000   1.0000
     1.0000   1.0000   1.0000   1.0000   1.0000   1.0000   1.0000   1.0000
     1.0000   1.0000   1.0000   1.0000   1.0000   1.0000   1.0000   1.0000
     1.0000   1.0000   1.0000   1.0000   1.0000   1.0000   1.0000   1.0000
     1.0000   1.0000   1.0000   1.0000   1.0000   1.0000   1.0000   1.0000
     1.0000   1.0000   1.0000   1.0000   1.0000   1.0000   1.0000   1.0000
     1.0000   1.0000   1.0000   1.0000   1.0000   1.0000   1.0000   1.0000
     1.0000   1.0000   1.0000   1.0000   1.0000   1.0000   1.0000   1.0000
     1.0000   1.0000   1.0000   1.0000   1.0000   1.0000   1.0000   1.0000
     1.0000   1.0000   1.0000   1.0000   1.0000   1.0000   1.0000   1.0000
     1.0000   1.0000   1.0000   1.0000   1.0000   1.0000   1.0000   1.0000
     1.0000   1.0000   1.0000   1.0000   1.0000   1.0000   1.0000   1.0000
     1.0000   1.0000   1.0000   1.0000   1.0000   1.0000   1.0000   1.0000
     1.0000   1.0000   1.0000   1.0000   1.0000   1.0000   1.0000   1.0000
     1.0000   1.0000   1.0000   1.0000   1.0000   1.0000   1.0000   1.0000
     1.0000   1.0000   1.0000   1.0000   1.0000   1.0000   1.0000   1.0000
     1.0000   1.0000   1.0000   1.0000   1.0000   1.0000   1.0000   1.0000
     1.0000   1.0000   1.0000   1.0000   1.0000   1.0000   1.0000   1.0000
     1.0000   1.0000   1.0000   1.0000   1.0000   1.0000   1.0000   1.0000
     1.0000   1.0000   1.0000   1.0000   1.0000   1.0000   0.0000   0.0000
     0.0000   0.0000   0.0000   0.0000   0.0000   0.0000   0.0000   0.0000
     0.0000   0.0000   0.0000   0.0000   0.0000   0.0000   0.0000   0.0000
     0.0000   0.0000   0.0000   0.0000   0.0000   0.0000   0.0000   0.0000
     0.0000   0.0000   0.0000   0.0000   0.0000   0.0000   0.0000   0.0000
     0.0000   0.0000   0.0000   0.0000   0.0000   0.0000   0.0000   0.0000
     0.0000   0.0000   0.0000   0.0000   0.0000   0.0000   0.0000   0.0000
     0.0000   0.0000   0.0000   0.0000   0.0000   0.0000   0.0000   0.0000
     0.0000   0.0000

     the Fermi energy is     6.7452 ev

!    total energy              =   -9990.68645829 Ry
     total all-electron energy =   -138896.307248 Ry
     estimated scf accuracy    <          4.2E-09 Ry
     smearing contrib. (-TS)   =      -0.00000000 Ry
     internal energy E=F+TS    =   -9990.68645829 Ry

     The total energy is F=E-TS. E is the sum of the following terms:
     one-electron contribution =   -2947.66112287 Ry
     hartree contribution      =    2041.37829029 Ry
     xc contribution           =   -1652.76748977 Ry
     ewald contribution        =   -2955.93282873 Ry
     one-center paw contrib.   =   -4475.70330721 Ry
      -> PAW hartree energy AE =     123.27632286 Ry
      -> PAW hartree energy PS =    -122.63447426 Ry
      -> PAW xc energy AE      =    -143.20929609 Ry
      -> PAW xc energy PS      =      47.14790242 Ry
      -> total E_H with PAW    =    2042.02013889 Ry
      -> total E_XC with PAW   =   -1748.82888345 Ry

     total magnetization       =     3.00 Bohr mag/cell
     absolute magnetization    =     3.06 Bohr mag/cell

     convergence has been achieved in  18 iterations

     Writing all to output data dir ./out/Co_vac_q0_unrlxd.save/

     General routines

     Parallel routines

     PAW routines

   This run was terminated on:  19: 5: 3  11Jul2024

   JOB DONE.