     Program PWSCF v.7.2 starts on  7Jul2024 at  1:48: 3

     Reading input from 1.Co_vac_in_ZnS.scf.q0.unrlxd.in

     Current dimensions of program PWSCF are:
     Max number of different atomic species (ntypx) = 10
     Max number of k-points (npk) =  40000
     Max angular momentum in pseudopotentials (lmaxx) =  4
     file S.pbe-n-kjpaw_psl.1.0.0.UPF: wavefunction(s)  3S 3P renormalized
     file Zn.pbe-dnl-kjpaw_psl.1.0.0.UPF: wavefunction(s)  4S 3D renormalized
     file Co.pbe-spn-kjpaw_psl.0.3.1.UPF: wavefunction(s)  3P 3D renormalized

     K-points division:     npool     =       7
     R & G space division:  proc/nbgrp/npool/nimage =     112
     Subspace diagonalization in iterative solution of the eigenvalue problem:
     one sub-group per band group will be used

     Using Slab Decomposition

     bravais-lattice index     =            1
     lattice parameter (alat)  =      20.5686  a.u.
     unit-cell volume          =    8701.8437 (a.u.)^3
     number of atoms/cell      =           63
     number of atomic types    =            3
     number of electrons       =       576.00
     number of Kohn-Sham states=          346
     kinetic-energy cutoff     =     150.0000  Ry
     charge density cutoff     =     600.0000  Ry
     scf convergence threshold =      1.0E-08
     mixing beta               =       0.7000
     number of iterations used =            8  plain     mixing
     Exchange-correlation= SLA  PW   PBX  PBC
                           (   1   4   3   4   0   0   0)

     celldm(1)=  20.568554  celldm(2)=   0.000000  celldm(3)=   0.000000
     celldm(4)=   0.000000  celldm(5)=   0.000000  celldm(6)=   0.000000

     crystal axes: (cart. coord. in units of alat)
               a(1) = (   1.000000   0.000000   0.000000 )
               a(2) = (   0.000000   1.000000   0.000000 )
               a(3) = (   0.000000   0.000000   1.000000 )

     reciprocal axes: (cart. coord. in units 2 pi/alat)
               b(1) = (  1.000000  0.000000  0.000000 )
               b(2) = (  0.000000  1.000000  0.000000 )
               b(3) = (  0.000000  0.000000  1.000000 )

     PseudoPot. # 1 for S  read from file:
     /arf/home/amuhaymin/pseudo/S.pbe-n-kjpaw_psl.1.0.0.UPF
     MD5 check sum: fb45dfebcf3e72a4e1bd4a866ec2e262
     Pseudo is Projector augmented-wave + core cor, Zval =  6.0
     Generated using &quot;atomic&quot; code by A. Dal Corso  v.6.3
     Shape of augmentation charge: PSQ
     Using radial grid of 1151 points,  6 beta functions with:
                l(1) =   0
                l(2) =   0
                l(3) =   1
                l(4) =   1
                l(5) =   2
                l(6) =   2
     Q(r) pseudized with 0 coefficients

     PseudoPot. # 2 for Zn read from file:
     /arf/home/amuhaymin/pseudo/Zn.pbe-dnl-kjpaw_psl.1.0.0.UPF
     MD5 check sum: c608214d9520ac179f507641260889e3
     Pseudo is Projector augmented-wave + core cor, Zval = 12.0
     Generated using &quot;atomic&quot; code by A. Dal Corso  v.6.2.2
     Shape of augmentation charge: PSQ
     Using radial grid of 1201 points,  6 beta functions with:
                l(1) =   0
                l(2) =   0
                l(3) =   1
                l(4) =   1
                l(5) =   2
                l(6) =   2
     Q(r) pseudized with 0 coefficients

     PseudoPot. # 3 for Co read from file:
     /arf/home/amuhaymin/pseudo/Co.pbe-spn-kjpaw_psl.0.3.1.UPF
     MD5 check sum: b0a1ad65bf214e88c1f3d33b20c7d919
     Pseudo is Projector augmented-wave + core cor, Zval = 17.0
     Generated using &quot;atomic&quot; code by A. Dal Corso  v.6.2.2
     Shape of augmentation charge: PSQ
     Using radial grid of 1193 points,  6 beta functions with:
                l(1) =   0
                l(2) =   0
                l(3) =   1
                l(4) =   1
                l(5) =   2
                l(6) =   2
     Q(r) pseudized with 0 coefficients

     atomic species   valence    mass     pseudopotential
        S              6.00    32.06500     S ( 1.00)
        Zn            12.00    65.38000     Zn( 1.00)
        Co            17.00    63.54600     Co( 1.00)

     Starting magnetic structure
     atomic species   magnetization
        S            0.000
        Zn           0.000
        Co           0.176

      6 Sym. Ops. (no inversion) found

                                    s                        frac. trans.

      isym =  1     identity

 cryst.   s( 1) = (     1          0          0      )
                  (     0          1          0      )
                  (     0          0          1      )

 cart.    s( 1) = (  1.0000000  0.0000000  0.0000000 )
                  (  0.0000000  1.0000000  0.0000000 )
                  (  0.0000000  0.0000000  1.0000000 )

      isym =  2     120 deg rotation - cart. axis [-1,-1,-1]

[...]

      isym =  3     120 deg rotation - cart. axis [1,1,1]

[...]

      isym =  4     inv. 180 deg rotation - cart. axis [1,-1,0]

[...]

      isym =  6     inv. 180 deg rotation - cart. axis [0,1,-1]

 cryst.   s( 6) = (     1          0          0      )
                  (     0          0          1      )
                  (     0          1          0      )

 cart.    s( 6) = (  1.0000000  0.0000000  0.0000000 )
                  (  0.0000000  0.0000000  1.0000000 )
                  (  0.0000000  1.0000000  0.0000000 )

     point group C_3v (3m)
     there are  3 classes
     the character table:

       E     2C3   3s_v
A_1    1.00  1.00  1.00
A_2    1.00  1.00 -1.00
E      2.00 -1.00  0.00

     the symmetry operations in each class and the name of the first element:

     E        1
          identity
     2C3      2    3
          120 deg rotation - cart. axis [-1,-1,-1]
     3s_v     4    5    6
          inv. 180 deg rotation - cart. axis [1,-1,0]

   Cartesian axes

     site n.     atom                  positions (alat units)
         1           Zn  tau(   1) = (   0.0000000   0.0000000   0.0000000  )
         2           Zn  tau(   2) = (   0.0000000   0.2500000   0.2500000  )
         3           Zn  tau(   3) = (   0.2500000   0.0000000   0.2500000  )
         4           Zn  tau(   4) = (   0.2500000   0.2500000   0.0000000  )
         5           S   tau(   5) = (   0.1250000   0.3750000   0.3750000  )
         6           S   tau(   6) = (   0.1250000   0.1250000   0.1250000  )
         7           S   tau(   7) = (   0.3750000   0.3750000   0.1250000  )
         8           S   tau(   8) = (   0.3750000   0.1250000   0.3750000  )
         9           Zn  tau(   9) = (   0.0000000   0.0000000   0.5000000  )
        10           Zn  tau(  10) = (   0.0000000   0.2500000   0.7500000  )
        11           Zn  tau(  11) = (   0.2500000   0.0000000   0.7500000  )
        12           Zn  tau(  12) = (   0.2500000   0.2500000   0.5000000  )
        13           S   tau(  13) = (   0.1250000   0.3750000   0.8750000  )
        14           S   tau(  14) = (   0.1250000   0.1250000   0.6250000  )
        15           S   tau(  15) = (   0.3750000   0.3750000   0.6250000  )
        16           S   tau(  16) = (   0.3750000   0.1250000   0.8750000  )
        17           Zn  tau(  17) = (   0.0000000   0.5000000   0.0000000  )
        18           Zn  tau(  18) = (   0.0000000   0.7500000   0.2500000  )
        19           Zn  tau(  19) = (   0.2500000   0.5000000   0.2500000  )
        20           Zn  tau(  20) = (   0.2500000   0.7500000   0.0000000  )
        21           S   tau(  21) = (   0.1250000   0.8750000   0.3750000  )
        22           S   tau(  22) = (   0.1250000   0.6250000   0.1250000  )
        23           S   tau(  23) = (   0.3750000   0.8750000   0.1250000  )
        24           S   tau(  24) = (   0.3750000   0.6250000   0.3750000  )
        25           Zn  tau(  25) = (   0.0000000   0.5000000   0.5000000  )
        26           Zn  tau(  26) = (   0.0000000   0.7500000   0.7500000  )
        27           Zn  tau(  27) = (   0.2500000   0.5000000   0.7500000  )
        28           Zn  tau(  28) = (   0.2500000   0.7500000   0.5000000  )
        29           S   tau(  29) = (   0.1250000   0.8750000   0.8750000  )
        30           S   tau(  30) = (   0.1250000   0.6250000   0.6250000  )
        31           S   tau(  31) = (   0.3750000   0.8750000   0.6250000  )
        32           S   tau(  32) = (   0.3750000   0.6250000   0.8750000  )
        33           Zn  tau(  33) = (   0.5000000   0.0000000   0.0000000  )
        34           Zn  tau(  34) = (   0.5000000   0.2500000   0.2500000  )
        35           Zn  tau(  35) = (   0.7500000   0.0000000   0.2500000  )
        36           Zn  tau(  36) = (   0.7500000   0.2500000   0.0000000  )
        37           S   tau(  37) = (   0.6250000   0.3750000   0.3750000  )
        38           S   tau(  38) = (   0.6250000   0.1250000   0.1250000  )
        39           S   tau(  39) = (   0.8750000   0.3750000   0.1250000  )
        40           S   tau(  40) = (   0.8750000   0.1250000   0.3750000  )
        41           Zn  tau(  41) = (   0.5000000   0.0000000   0.5000000  )
        42           Zn  tau(  42) = (   0.5000000   0.2500000   0.7500000  )
        43           Zn  tau(  43) = (   0.7500000   0.0000000   0.7500000  )
        44           Zn  tau(  44) = (   0.7500000   0.2500000   0.5000000  )
        45           S   tau(  45) = (   0.6250000   0.3750000   0.8750000  )
        46           S   tau(  46) = (   0.6250000   0.1250000   0.6250000  )
        47           S   tau(  47) = (   0.8750000   0.3750000   0.6250000  )
        48           S   tau(  48) = (   0.8750000   0.1250000   0.8750000  )
        49           Zn  tau(  49) = (   0.5000000   0.5000000   0.0000000  )
        50           Zn  tau(  50) = (   0.5000000   0.7500000   0.2500000  )
        51           Zn  tau(  51) = (   0.7500000   0.5000000   0.2500000  )
        52           Zn  tau(  52) = (   0.7500000   0.7500000   0.0000000  )
        53           S   tau(  53) = (   0.6250000   0.8750000   0.3750000  )
        54           S   tau(  54) = (   0.6250000   0.6250000   0.1250000  )
        55           S   tau(  55) = (   0.8750000   0.8750000   0.1250000  )
        56           S   tau(  56) = (   0.8750000   0.6250000   0.3750000  )
        57           Co  tau(  57) = (   0.5000000   0.5000000   0.5000000  )
        58           Zn  tau(  58) = (   0.5000000   0.7500000   0.7500000  )
        59           Zn  tau(  59) = (   0.7500000   0.5000000   0.7500000  )
        60           Zn  tau(  60) = (   0.7500000   0.7500000   0.5000000  )
        61           S   tau(  61) = (   0.6250000   0.8750000   0.8750000  )
        62           S   tau(  62) = (   0.8750000   0.8750000   0.6250000  )
        63           S   tau(  63) = (   0.8750000   0.6250000   0.8750000  )

   Crystallographic axes

     site n.     atom                  positions (cryst. coord.)
         1           Zn  tau(   1) = (  0.0000000  0.0000000  0.0000000  )
         2           Zn  tau(   2) = (  0.0000000  0.2500000  0.2500000  )
         3           Zn  tau(   3) = (  0.2500000  0.0000000  0.2500000  )
         4           Zn  tau(   4) = (  0.2500000  0.2500000  0.0000000  )
[...]
     atom  28 (R=0.089)  charge= 10.1642  magn=  0.0011
     atom  29 (R=0.089)  charge=  3.9991  magn= -0.0001
     atom  30 (R=0.089)  charge=  3.9983  magn= -0.0003
     atom  31 (R=0.089)  charge=  3.9951  magn=  0.0005
     atom  32 (R=0.089)  charge=  3.9951  magn=  0.0005
     atom  33 (R=0.089)  charge= 10.1654  magn=  0.0000
     atom  34 (R=0.089)  charge= 10.1641  magn= -0.0012
     atom  35 (R=0.089)  charge= 10.1640  magn= -0.0001
     atom  36 (R=0.089)  charge= 10.1640  magn= -0.0001
     atom  37 (R=0.089)  charge=  3.9842  magn=  0.0149
     atom  38 (R=0.089)  charge=  3.9991  magn= -0.0008
     atom  39 (R=0.089)  charge=  3.9992  magn=  0.0015
     atom  40 (R=0.089)  charge=  3.9992  magn=  0.0015
     atom  41 (R=0.089)  charge= 10.1621  magn=  0.0000
     atom  42 (R=0.089)  charge= 10.1642  magn=  0.0011
     atom  43 (R=0.089)  charge= 10.1626  magn= -0.0000
     atom  44 (R=0.089)  charge= 10.1642  magn=  0.0011
     atom  45 (R=0.089)  charge=  3.9951  magn=  0.0005
     atom  46 (R=0.089)  charge=  3.9983  magn= -0.0003
     atom  47 (R=0.089)  charge=  3.9951  magn=  0.0005
     atom  48 (R=0.089)  charge=  3.9991  magn= -0.0001
     atom  49 (R=0.089)  charge= 10.1621  magn=  0.0000
     atom  50 (R=0.089)  charge= 10.1642  magn=  0.0011
     atom  51 (R=0.089)  charge= 10.1642  magn=  0.0011
     atom  52 (R=0.089)  charge= 10.1626  magn= -0.0000
     atom  53 (R=0.089)  charge=  3.9951  magn=  0.0005
     atom  54 (R=0.089)  charge=  3.9983  magn= -0.0003
     atom  55 (R=0.089)  charge=  3.9991  magn= -0.0001
     atom  56 (R=0.089)  charge=  3.9951  magn=  0.0005
     atom  57 (R=0.089)  charge= 15.1912  magn=  1.7419
     atom  58 (R=0.089)  charge= 10.1286  magn= -0.0009
     atom  59 (R=0.089)  charge= 10.1286  magn= -0.0009
     atom  60 (R=0.089)  charge= 10.1286  magn= -0.0009
     atom  61 (R=0.089)  charge=  3.9960  magn= -0.0010
     atom  62 (R=0.089)  charge=  3.9960  magn= -0.0010
     atom  63 (R=0.089)  charge=  3.9960  magn= -0.0010

     End of self-consistent calculation

 ------ SPIN UP ------------

          k = 0.0000 0.0000 0.0000 (269825 PWs)   bands (ev):

   -87.7344 -51.1769 -51.1769 -50.8015  -7.6256  -7.1148  -7.1148  -7.1033
    -7.1033  -7.0875  -7.0433  -6.8144  -6.8144  -6.8078  -6.8002  -6.7969
    -6.7937  -6.7937  -6.7857  -6.7857  -6.7848  -6.7848  -6.7841  -6.6539
    -6.6539  -6.6180  -6.4915  -6.4915  -6.4893  -6.4659  -6.4569  -6.4569
    -6.3207  -6.1559  -6.1559  -0.9214  -0.9212  -0.9212  -0.9133  -0.9133
    -0.9093  -0.8637  -0.8637  -0.8468  -0.8441  -0.8441  -0.8354  -0.8002
    -0.7983  -0.7983  -0.7936  -0.7936  -0.7815  -0.7815  -0.7761  -0.7761
    -0.7760  -0.7750  -0.7595  -0.7552  -0.7552  -0.7525  -0.7489  -0.7457
    -0.7457  -0.7319  -0.7319  -0.7298  -0.7294  -0.7294  -0.7250  -0.7250
    -0.7237  -0.7224  -0.7200  -0.7171  -0.7171  -0.7126  -0.7126  -0.7007
    -0.6873  -0.6846  -0.6846  -0.6715  -0.6715  -0.6676  -0.6671  -0.6642
    -0.6642  -0.6262  -0.6084  -0.6084  -0.6034  -0.6034  -0.5970  -0.5905
    -0.5905  -0.5891  -0.5800  -0.5800  -0.5676  -0.5616  -0.5616  -0.5566
    -0.5566  -0.5440  -0.5410  -0.5410  -0.5285  -0.5285  -0.5238  -0.5195
    -0.4959  -0.4816  -0.4816  -0.4670  -0.4670  -0.4631  -0.4585  -0.4585
    -0.4559  -0.4559  -0.4552  -0.4551  -0.4396  -0.4396  -0.4258  -0.4183
    -0.4183  -0.4142  -0.4097  -0.4060  -0.4060  -0.4000  -0.4000  -0.3932
    -0.3932  -0.3878  -0.3807  -0.3807  -0.3783  -0.3771  -0.3754  -0.3754
    -0.3740  -0.3718  -0.3718  -0.3718  -0.3510  -0.3381  -0.3381  -0.3241
    -0.3241  -0.3157  -0.3076  -0.3076  -0.3033  -0.3033  -0.2967  -0.2893
    -0.2815  -0.2815  -0.2738  -0.2722  -0.2722  -0.2713  -0.2516  -0.2516
    -0.2375  -0.2094  -0.2025  -0.2025  -0.1861  -0.1861  -0.1816  -0.1743
    -0.1743  -0.1702  -0.1665  -0.1572  -0.1572  -0.1361  -0.1361  -0.1263
    -0.0446  -0.0027  -0.0027   0.0355   0.0355   0.0393   0.2276   0.2868
     0.3103   0.3103   0.8357   0.8449   0.8449   0.8836   0.8941   0.8941
     1.0309   1.0309   1.1023   1.2975   1.4305   1.4305   1.4788   1.4788
     1.5020   1.5095   1.5095   1.5194   1.7017   1.7017   2.1078   2.6361
     2.6998   2.6998   2.7125   2.7180   2.7180   2.7196   2.7232   2.7360
     2.7360   2.7475   2.7475   2.7572   2.7931   2.7931   2.8358   2.8358
     2.8842   2.9016   2.9016   2.9323   2.9417   2.9417   2.9505   3.0042
     3.0042   3.0807   3.1154   3.1154   3.2434   3.2566   3.2566   3.2686
     3.5889   3.5889   3.6747   3.9740   3.9740   4.1615   4.1695   4.1695
     4.1854   4.1979   4.1979   4.2191   4.2931   4.3316   4.3316   4.3559
     4.3559   4.4646   4.4661   4.4661   4.4699   4.4717   4.4717   4.4819
     4.4819   4.4827   4.4832   4.4952   4.4952   4.5433   4.5433   4.6306
     5.2156   5.2156   5.2775   6.0764   6.0764   6.2299   6.4351   6.4351
     6.7356   7.7670   8.5989   8.5989   8.6928   8.7660   8.8318   8.8318
     8.9334   8.9334   9.1172   9.4759   9.4890   9.4890   9.5118   9.8280
     9.8280   9.9073   9.9339   9.9339   9.9506   9.9784   9.9795   9.9795
     9.9925   9.9925  10.1393  10.1490  10.1490  10.1594  10.1594  10.1940
    10.1940  10.2300  10.3538  10.6299  10.6299  10.7006  11.0489  11.1320
    11.1320  11.1721  11.1721  11.3059  11.3059  11.3085  11.3224  11.6415
    11.6415  11.6937  11.8064  11.8331  11.8331  11.8623  11.9973  11.9974
    12.0027  12.0126

     occupation numbers
     1.0000   1.0000   1.0000   1.0000   1.0000   1.0000   1.0000   1.0000
     1.0000   1.0000   1.0000   1.0000   1.0000   1.0000   1.0000   1.0000
     1.0000   1.0000   1.0000   1.0000   1.0000   1.0000   1.0000   1.0000
     1.0000   1.0000   1.0000   1.0000   1.0000   1.0000   1.0000   1.0000
     1.0000   1.0000   1.0000   1.0000   1.0000   1.0000   1.0000   1.0000
     1.0000   1.0000   1.0000   1.0000   1.0000   1.0000   1.0000   1.0000
     1.0000   1.0000   1.0000   1.0000   1.0000   1.0000   1.0000   1.0000
     1.0000   1.0000   1.0000   1.0000   1.0000   1.0000   1.0000   1.0000
     1.0000   1.0000   1.0000   1.0000   1.0000   1.0000   1.0000   1.0000
     1.0000   1.0000   1.0000   1.0000   1.0000   1.0000   1.0000   1.0000
     1.0000   1.0000   1.0000   1.0000   1.0000   1.0000   1.0000   1.0000
     1.0000   1.0000   1.0000   1.0000   1.0000   1.0000   1.0000   1.0000
     1.0000   1.0000   1.0000   1.0000   1.0000   1.0000   1.0000   1.0000
     1.0000   1.0000   1.0000   1.0000   1.0000   1.0000   1.0000   1.0000
     1.0000   1.0000   1.0000   1.0000   1.0000   1.0000   1.0000   1.0000
     1.0000   1.0000   1.0000   1.0000   1.0000   1.0000   1.0000   1.0000
     1.0000   1.0000   1.0000   1.0000   1.0000   1.0000   1.0000   1.0000
     1.0000   1.0000   1.0000   1.0000   1.0000   1.0000   1.0000   1.0000
     1.0000   1.0000   1.0000   1.0000   1.0000   1.0000   1.0000   1.0000
     1.0000   1.0000   1.0000   1.0000   1.0000   1.0000   1.0000   1.0000
     1.0000   1.0000   1.0000   1.0000   1.0000   1.0000   1.0000   1.0000
     1.0000   1.0000   1.0000   1.0000   1.0000   1.0000   1.0000   1.0000
     1.0000   1.0000   1.0000   1.0000   1.0000   1.0000   1.0000   1.0000
     1.0000   1.0000   1.0000   1.0000   1.0000   1.0000   1.0000   1.0000
     1.0000   1.0000   1.0000   1.0000   1.0000   1.0000   1.0000   1.0000
     1.0000   1.0000   1.0000   1.0000   1.0000   1.0000   1.0000   1.0000
     1.0000   1.0000   1.0000   1.0000   1.0000   1.0000   1.0000   1.0000
     1.0000   1.0000   1.0000   1.0000   1.0000   1.0000   1.0000   1.0000
     1.0000   1.0000   1.0000   1.0000   1.0000   1.0000   1.0000   1.0000
     1.0000   1.0000   1.0000   1.0000   1.0000   1.0000   1.0000   1.0000
     1.0000   1.0000   1.0000   1.0000   1.0000   1.0000   1.0000   1.0000
     1.0000   1.0000   1.0000   1.0000   1.0000   1.0000   1.0000   1.0000
     1.0000   1.0000   1.0000   1.0000   1.0000   1.0000   1.0000   1.0000
     1.0000   1.0000   1.0000   1.0000   1.0000   1.0000   1.0000   1.0000
     1.0000   1.0000   1.0000   1.0000   1.0000   1.0000   1.0000   1.0000
     1.0000   1.0000   1.0000   1.0000   1.0000   1.0000   1.0000   1.0000
     1.0000   0.0000   0.0000   0.0000   0.0000   0.0000   0.0000   0.0000
     0.0000   0.0000   0.0000   0.0000   0.0000   0.0000   0.0000   0.0000
     0.0000   0.0000   0.0000   0.0000   0.0000   0.0000   0.0000   0.0000
     0.0000   0.0000   0.0000   0.0000   0.0000   0.0000   0.0000   0.0000
     0.0000   0.0000   0.0000   0.0000   0.0000   0.0000   0.0000   0.0000
     0.0000   0.0000   0.0000   0.0000   0.0000   0.0000   0.0000   0.0000
     0.0000   0.0000   0.0000   0.0000   0.0000   0.0000   0.0000   0.0000
     0.0000   0.0000

[...]

          k =-0.5000-0.5000-0.5000 (269968 PWs)   bands (ev):

[...]

 ------ SPIN DOWN ----------

[...]

          k =-0.2500 0.0000 0.2500 (269929 PWs)   bands (ev):

[...]

          k = 0.2500-0.2500-0.5000 (269988 PWs)   bands (ev):

   -85.6422 -49.0556 -49.0556 -48.9054  -7.4508  -7.3776  -7.2026  -7.2000
    -7.1384  -7.0980  -7.0078  -6.8871  -6.8275  -6.8236  -6.7855  -6.7683
    -6.7547  -6.7535  -6.6837  -6.6732  -6.6666  -6.6614  -6.6398  -6.6176
    -6.6141  -6.5822  -6.5765  -6.5595  -6.5448  -6.5301  -6.5258  -6.5231
    -6.2713  -6.1609  -6.1498  -0.8964  -0.8812  -0.8809  -0.8748  -0.8597
    -0.8508  -0.8406  -0.8362  -0.8316  -0.8290  -0.8230  -0.8192  -0.8150
    -0.8145  -0.8120  -0.8086  -0.8081  -0.8030  -0.8014  -0.7989  -0.7944
    -0.7896  -0.7863  -0.7824  -0.7788  -0.7752  -0.7745  -0.7713  -0.7644
    -0.7629  -0.7592  -0.7550  -0.7524  -0.7456  -0.7439  -0.7432  -0.7378
    -0.7373  -0.7338  -0.7270  -0.7250  -0.7209  -0.7096  -0.7057  -0.7007
    -0.6985  -0.6867  -0.6833  -0.6738  -0.6683  -0.6621  -0.6602  -0.6539
    -0.6468  -0.6413  -0.6381  -0.6297  -0.6287  -0.6191  -0.6156  -0.6129
    -0.6069  -0.5976  -0.5940  -0.5900  -0.5843  -0.5778  -0.5757  -0.5678
    -0.5603  -0.5435  -0.5402  -0.5391  -0.5240  -0.5127  -0.5042  -0.4964
    -0.4931  -0.4903  -0.4852  -0.4845  -0.4738  -0.4718  -0.4628  -0.4590
    -0.4508  -0.4463  -0.4399  -0.4393  -0.4307  -0.4257  -0.4166  -0.4136
    -0.4094  -0.4086  -0.4029  -0.4003  -0.3985  -0.3938  -0.3931  -0.3885
    -0.3867  -0.3845  -0.3814  -0.3791  -0.3789  -0.3769  -0.3733  -0.3685
    -0.3639  -0.3618  -0.3521  -0.3489  -0.3426  -0.3351  -0.3295  -0.3269
    -0.3174  -0.3076  -0.2987  -0.2953  -0.2908  -0.2890  -0.2862  -0.2785
    -0.2727  -0.2673  -0.2630  -0.2568  -0.2528  -0.2509  -0.2463  -0.2432
    -0.2349  -0.2277  -0.2133  -0.2050  -0.1926  -0.1865  -0.1803  -0.1756
    -0.1712  -0.1630  -0.1518  -0.1422  -0.1313  -0.1186  -0.1114  -0.1069
    -0.0894  -0.0815  -0.0729  -0.0532  -0.0504  -0.0369   0.5213   0.6041
     0.7338   0.7656   0.8065   0.8193   0.8350   0.8683   0.9163   0.9249
     0.9419   0.9687   0.9856   1.0082   1.0499   1.0807   1.1642   1.3590
     1.4230   1.5012   1.5328   1.5761   1.6073   1.6882   1.8224   2.1335
     2.4748   2.5326   2.5358   2.5599   2.5710   2.5862   2.6360   2.6996
     2.7315   2.7616   2.8021   2.8156   2.8828   2.9567   2.9813   3.0346
     3.2176   3.2709   3.3364   3.3521   3.4099   3.4239   3.4399   3.4567
     3.4814   3.5008   3.5064   3.5486   3.5890   3.6087   3.6153   3.6301
     3.6382   3.6449   3.6515   3.7116   3.7342   3.7398   3.7765   3.7946
     3.8151   3.8996   3.9321   3.9926   4.0079   4.0724   4.0795   4.1456
     4.1557   4.1728   4.2118   4.2852   4.3334   4.3666   4.3819   4.4090
     4.4406   4.5906   4.7022   4.7608   4.7907   4.8348   4.8648   4.9048
     4.9681   5.0113   5.0331   6.7649   7.2323   7.2452   7.5479   8.1498
     8.2374   8.5495   8.6415   8.9090   8.9815   9.0895   9.1171   9.2618
     9.3083   9.3282   9.4079   9.5106   9.5398   9.5668   9.5893   9.5912
     9.6533   9.7052   9.7226   9.7723   9.7903   9.8324   9.8564   9.9030
     9.9619   9.9856  10.0584  10.0717  10.1189  10.1644  10.2194  10.2863
    10.3051  10.4177  10.4573  10.6312  10.6788  10.7192  10.7924  10.8150
    10.8567  10.9194  11.0270  11.1411  11.1809  11.2289  11.3373  11.3904
    11.4245  11.4525  11.4603  11.5002  11.5363  11.5656  11.5919  11.6054
    11.6196  11.6304

     occupation numbers
     1.0000   1.0000   1.0000   1.0000   1.0000   1.0000   1.0000   1.0000
     1.0000   1.0000   1.0000   1.0000   1.0000   1.0000   1.0000   1.0000
     1.0000   1.0000   1.0000   1.0000   1.0000   1.0000   1.0000   1.0000
     1.0000   1.0000   1.0000   1.0000   1.0000   1.0000   1.0000   1.0000
     1.0000   1.0000   1.0000   1.0000   1.0000   1.0000   1.0000   1.0000
     1.0000   1.0000   1.0000   1.0000   1.0000   1.0000   1.0000   1.0000
     1.0000   1.0000   1.0000   1.0000   1.0000   1.0000   1.0000   1.0000
     1.0000   1.0000   1.0000   1.0000   1.0000   1.0000   1.0000   1.0000
     1.0000   1.0000   1.0000   1.0000   1.0000   1.0000   1.0000   1.0000
     1.0000   1.0000   1.0000   1.0000   1.0000   1.0000   1.0000   1.0000
     1.0000   1.0000   1.0000   1.0000   1.0000   1.0000   1.0000   1.0000
     1.0000   1.0000   1.0000   1.0000   1.0000   1.0000   1.0000   1.0000
     1.0000   1.0000   1.0000   1.0000   1.0000   1.0000   1.0000   1.0000
     1.0000   1.0000   1.0000   1.0000   1.0000   1.0000   1.0000   1.0000
     1.0000   1.0000   1.0000   1.0000   1.0000   1.0000   1.0000   1.0000
     1.0000   1.0000   1.0000   1.0000   1.0000   1.0000   1.0000   1.0000
     1.0000   1.0000   1.0000   1.0000   1.0000   1.0000   1.0000   1.0000
     1.0000   1.0000   1.0000   1.0000   1.0000   1.0000   1.0000   1.0000
     1.0000   1.0000   1.0000   1.0000   1.0000   1.0000   1.0000   1.0000
     1.0000   1.0000   1.0000   1.0000   1.0000   1.0000   1.0000   1.0000
     1.0000   1.0000   1.0000   1.0000   1.0000   1.0000   1.0000   1.0000
     1.0000   1.0000   1.0000   1.0000   1.0000   1.0000   1.0000   1.0000
     1.0000   1.0000   1.0000   1.0000   1.0000   1.0000   1.0000   1.0000
     1.0000   1.0000   1.0000   1.0000   1.0000   1.0000   1.0000   1.0000
     1.0000   1.0000   1.0000   1.0000   1.0000   1.0000   1.0000   1.0000
     1.0000   1.0000   1.0000   1.0000   1.0000   1.0000   1.0000   1.0000
     1.0000   1.0000   1.0000   1.0000   1.0000   1.0000   1.0000   1.0000
     1.0000   1.0000   1.0000   1.0000   1.0000   1.0000   1.0000   1.0000
     1.0000   1.0000   1.0000   1.0000   1.0000   1.0000   1.0000   1.0000
     1.0000   1.0000   1.0000   1.0000   1.0000   1.0000   1.0000   1.0000
     1.0000   1.0000   1.0000   1.0000   1.0000   1.0000   1.0000   1.0000
     1.0000   1.0000   1.0000   1.0000   1.0000   1.0000   1.0000   1.0000
     1.0000   1.0000   1.0000   1.0000   1.0000   1.0000   1.0000   1.0000
     1.0000   1.0000   1.0000   1.0000   1.0000   1.0000   1.0000   1.0000
     1.0000   1.0000   1.0000   1.0000   1.0000   1.0000   1.0000   1.0000
     1.0000   1.0000   1.0000   1.0000   1.0000   1.0000   1.0000   0.0000
     0.0000   0.0000   0.0000   0.0000   0.0000   0.0000   0.0000   0.0000
     0.0000   0.0000   0.0000   0.0000   0.0000   0.0000   0.0000   0.0000
     0.0000   0.0000   0.0000   0.0000   0.0000   0.0000   0.0000   0.0000
     0.0000   0.0000   0.0000   0.0000   0.0000   0.0000   0.0000   0.0000
     0.0000   0.0000   0.0000   0.0000   0.0000   0.0000   0.0000   0.0000
     0.0000   0.0000   0.0000   0.0000   0.0000   0.0000   0.0000   0.0000
     0.0000   0.0000   0.0000   0.0000   0.0000   0.0000   0.0000   0.0000
     0.0000   0.0000

     the Fermi energy is     7.6617 ev

!    total energy              =   -9990.15285349 Ry
     total all-electron energy =   -138895.773644 Ry
     estimated scf accuracy    <          3.3E-09 Ry
     smearing contrib. (-TS)   =      -0.00000000 Ry
     internal energy E=F+TS    =   -9990.15285349 Ry

     The total energy is F=E-TS. E is the sum of the following terms:
     one-electron contribution =   -2947.25261311 Ry
     hartree contribution      =    2042.31144458 Ry
     xc contribution           =   -1653.54230020 Ry
     ewald contribution        =   -2955.93282873 Ry
     one-center paw contrib.   =   -4475.73655603 Ry
      -> PAW hartree energy AE =     123.39212660 Ry
      -> PAW hartree energy PS =    -122.75065863 Ry
      -> PAW xc energy AE      =    -143.21850497 Ry
      -> PAW xc energy PS      =      47.15692217 Ry
      -> total E_H with PAW    =    2042.95291255 Ry
      -> total E_XC with PAW   =   -1749.60388300 Ry

     total magnetization       =     2.00 Bohr mag/cell
     absolute magnetization    =     2.20 Bohr mag/cell

     convergence has been achieved in  21 iterations

     Writing all to output data dir ./out/Co_vac_q0_unrlxd.save/

     General routines

     Parallel routines

     PAW routines

   This run was terminated on:   1:55:38   7Jul2024

   JOB DONE.