     Program PWSCF v.7.2 starts on  1Jul2024 at 11:20: 3

     Waiting for input...
     Reading input from standard input

     Current dimensions of program PWSCF are:
     Max number of different atomic species (ntypx) = 10
     Max number of k-points (npk) =  40000
     Max angular momentum in pseudopotentials (lmaxx) =  4
     file S.pbe-n-kjpaw_psl.1.0.0.UPF: wavefunction(s)  3S 3P renormalized
     file Zn.pbe-dnl-kjpaw_psl.1.0.0.UPF: wavefunction(s)  4S 3D renormalized
     Found identity + (  0.0000  0.2500  0.2500) symmetry
     This is a supercell, fractional translations are disabled

     K-points division:     npool     =      10
     R & G space division:  proc/nbgrp/npool/nimage =     112
     Subspace diagonalization in iterative solution of the eigenvalue problem:
     one sub-group per band group will be used

     Using Slab Decomposition

     bravais-lattice index     =            1
     lattice parameter (alat)  =      20.5686  a.u.
     unit-cell volume          =    8701.8437 (a.u.)^3
     number of atoms/cell      =           64
     number of atomic types    =            2
     number of electrons       =       576.00
     number of Kohn-Sham states=          345
     kinetic-energy cutoff     =     105.0000  Ry
     charge density cutoff     =     420.0000  Ry
     scf convergence threshold =      1.0E-06
     mixing beta               =       0.7000
     number of iterations used =            8  plain     mixing
     Exchange-correlation= SLA  PW   PBX  PBC
                           (   1   4   3   4   0   0   0)
     Hubbard projectors: ortho-atomic
     Hubbard parameters of DFT+U (Dudarev formulation) in eV:
     U(Zn-3d) =  5.0000

     Internal variables: lda_plus_u = T, lda_plus_u_kind = 0

     celldm(1)=  20.568554  celldm(2)=   0.000000  celldm(3)=   0.000000
     celldm(4)=   0.000000  celldm(5)=   0.000000  celldm(6)=   0.000000

     crystal axes: (cart. coord. in units of alat)
               a(1) = (   1.000000   0.000000   0.000000 )
               a(2) = (   0.000000   1.000000   0.000000 )
               a(3) = (   0.000000   0.000000   1.000000 )

     reciprocal axes: (cart. coord. in units 2 pi/alat)
               b(1) = (  1.000000  0.000000  0.000000 )
               b(2) = (  0.000000  1.000000  0.000000 )
               b(3) = (  0.000000  0.000000  1.000000 )

     PseudoPot. # 1 for S  read from file:
     /arf/home/amuhaymin/pseudo/S.pbe-n-kjpaw_psl.1.0.0.UPF
     MD5 check sum: fb45dfebcf3e72a4e1bd4a866ec2e262
     Pseudo is Projector augmented-wave + core cor, Zval =  6.0
     Generated using &quot;atomic&quot; code by A. Dal Corso  v.6.3
     Shape of augmentation charge: PSQ
     Using radial grid of 1151 points,  6 beta functions with:
                l(1) =   0
                l(2) =   0
                l(3) =   1
                l(4) =   1
                l(5) =   2
                l(6) =   2
     Q(r) pseudized with 0 coefficients

     PseudoPot. # 2 for Zn read from file:
     /arf/home/amuhaymin/pseudo/Zn.pbe-dnl-kjpaw_psl.1.0.0.UPF
     MD5 check sum: c608214d9520ac179f507641260889e3
     Pseudo is Projector augmented-wave + core cor, Zval = 12.0
     Generated using &quot;atomic&quot; code by A. Dal Corso  v.6.2.2
     Shape of augmentation charge: PSQ
     Using radial grid of 1201 points,  6 beta functions with:
                l(1) =   0
                l(2) =   0
                l(3) =   1
                l(4) =   1
                l(5) =   2
                l(6) =   2
     Q(r) pseudized with 0 coefficients

     atomic species   valence    mass     pseudopotential
        S              6.00    32.06500     S ( 1.00)
        Zn            12.00    65.38000     Zn( 1.00)

     24 Sym. Ops. (no inversion) found

                                    s                        frac. trans.

      isym =  1     identity

 cryst.   s( 1) = (     1          0          0      )
                  (     0          1          0      )
                  (     0          0          1      )

 cart.    s( 1) = (  1.0000000  0.0000000  0.0000000 )
                  (  0.0000000  1.0000000  0.0000000 )
                  (  0.0000000  0.0000000  1.0000000 )

      isym =  2     180 deg rotation - cart. axis [0,0,1]

[...]

 cryst.   s( 9) = (     0          1          0      )
                  (     0          0          1      )
                  (     1          0          0      )

 cart.    s( 9) = (  0.0000000  0.0000000  1.0000000 )
                  (  1.0000000  0.0000000  0.0000000 )
                  (  0.0000000  1.0000000  0.0000000 )

[...]

 cryst.   s(10) = (     0         -1          0      )
                  (     0          0         -1      )
                  (     1          0          0      )

 cart.    s(10) = (  0.0000000  0.0000000  1.0000000 )
                  ( -1.0000000  0.0000000  0.0000000 )
                  (  0.0000000 -1.0000000  0.0000000 )

[...]

      isym = 12     120 deg rotation - cart. axis [-1,-1,1]

[...]

      isym = 13     inv. 180 deg rotation - cart. axis [1,1,0]

[...]

      isym = 24     inv.  90 deg rotation - cart. axis [1,0,0]

 cryst.   s(24) = (    -1          0          0      )
                  (     0          0         -1      )
                  (     0          1          0      )

 cart.    s(24) = ( -1.0000000  0.0000000  0.0000000 )
                  (  0.0000000  0.0000000  1.0000000 )
                  (  0.0000000 -1.0000000  0.0000000 )

     point group T_d (-43m)
     there are  5 classes
     the character table:

       E     8C3   3C2   6S4   6s_d
A_1    1.00  1.00  1.00  1.00  1.00
A_2    1.00  1.00  1.00 -1.00 -1.00
E      2.00 -1.00  2.00  0.00  0.00
T_1    3.00  0.00 -1.00  1.00 -1.00
T_2    3.00  0.00 -1.00 -1.00  1.00

     the symmetry operations in each class and the name of the first element:

     E        1
          identity
     8C3      5    7    8    6   12    9   10   11
          120 deg rotation - cart. axis [-1,-1,-1]
     3C2      2    3    4
          180 deg rotation - cart. axis [0,0,1]
     6S4     15   16   20   19   23   24
          inv.  90 deg rotation - cart. axis [0,0,-1]
     6s_d    13   14   17   18   21   22
          inv. 180 deg rotation - cart. axis [1,1,0]

   Cartesian axes

     site n.     atom                  positions (alat units)
         1           Zn  tau(   1) = (   0.0000000   0.0000000   0.0000000  )
         2           Zn  tau(   2) = (   0.0000000   0.2500000   0.2500000  )
         3           Zn  tau(   3) = (   0.2500000   0.0000000   0.2500000  )
         4           Zn  tau(   4) = (   0.2500000   0.2500000   0.0000000  )
         5           S   tau(   5) = (   0.1250000   0.3750000   0.3750000  )
         6           S   tau(   6) = (   0.1250000   0.1250000   0.1250000  )
         7           S   tau(   7) = (   0.3750000   0.3750000   0.1250000  )
         8           S   tau(   8) = (   0.3750000   0.1250000   0.3750000  )
         9           Zn  tau(   9) = (   0.0000000   0.0000000   0.5000000  )
        10           Zn  tau(  10) = (   0.0000000   0.2500000   0.7500000  )
        11           Zn  tau(  11) = (   0.2500000   0.0000000   0.7500000  )
        12           Zn  tau(  12) = (   0.2500000   0.2500000   0.5000000  )
        13           S   tau(  13) = (   0.1250000   0.3750000   0.8750000  )
        14           S   tau(  14) = (   0.1250000   0.1250000   0.6250000  )
        15           S   tau(  15) = (   0.3750000   0.3750000   0.6250000  )
        16           S   tau(  16) = (   0.3750000   0.1250000   0.8750000  )
        17           Zn  tau(  17) = (   0.0000000   0.5000000   0.0000000  )
        18           Zn  tau(  18) = (   0.0000000   0.7500000   0.2500000  )
        19           Zn  tau(  19) = (   0.2500000   0.5000000   0.2500000  )
        20           Zn  tau(  20) = (   0.2500000   0.7500000   0.0000000  )
        21           S   tau(  21) = (   0.1250000   0.8750000   0.3750000  )
        22           S   tau(  22) = (   0.1250000   0.6250000   0.1250000  )
        23           S   tau(  23) = (   0.3750000   0.8750000   0.1250000  )
        24           S   tau(  24) = (   0.3750000   0.6250000   0.3750000  )
        25           Zn  tau(  25) = (   0.0000000   0.5000000   0.5000000  )
        26           Zn  tau(  26) = (   0.0000000   0.7500000   0.7500000  )
        27           Zn  tau(  27) = (   0.2500000   0.5000000   0.7500000  )
        28           Zn  tau(  28) = (   0.2500000   0.7500000   0.5000000  )
        29           S   tau(  29) = (   0.1250000   0.8750000   0.8750000  )
        30           S   tau(  30) = (   0.1250000   0.6250000   0.6250000  )
        31           S   tau(  31) = (   0.3750000   0.8750000   0.6250000  )
        32           S   tau(  32) = (   0.3750000   0.6250000   0.8750000  )
        33           Zn  tau(  33) = (   0.5000000   0.0000000   0.0000000  )
        34           Zn  tau(  34) = (   0.5000000   0.2500000   0.2500000  )
        35           Zn  tau(  35) = (   0.7500000   0.0000000   0.2500000  )
        36           Zn  tau(  36) = (   0.7500000   0.2500000   0.0000000  )
        37           S   tau(  37) = (   0.6250000   0.3750000   0.3750000  )
        38           S   tau(  38) = (   0.6250000   0.1250000   0.1250000  )
        39           S   tau(  39) = (   0.8750000   0.3750000   0.1250000  )
        40           S   tau(  40) = (   0.8750000   0.1250000   0.3750000  )
        41           Zn  tau(  41) = (   0.5000000   0.0000000   0.5000000  )
        42           Zn  tau(  42) = (   0.5000000   0.2500000   0.7500000  )
        43           Zn  tau(  43) = (   0.7500000   0.0000000   0.7500000  )
        44           Zn  tau(  44) = (   0.7500000   0.2500000   0.5000000  )
        45           S   tau(  45) = (   0.6250000   0.3750000   0.8750000  )
        46           S   tau(  46) = (   0.6250000   0.1250000   0.6250000  )
        47           S   tau(  47) = (   0.8750000   0.3750000   0.6250000  )
        48           S   tau(  48) = (   0.8750000   0.1250000   0.8750000  )
        49           Zn  tau(  49) = (   0.5000000   0.5000000   0.0000000  )
        50           Zn  tau(  50) = (   0.5000000   0.7500000   0.2500000  )
        51           Zn  tau(  51) = (   0.7500000   0.5000000   0.2500000  )
        52           Zn  tau(  52) = (   0.7500000   0.7500000   0.0000000  )
        53           S   tau(  53) = (   0.6250000   0.8750000   0.3750000  )
        54           S   tau(  54) = (   0.6250000   0.6250000   0.1250000  )
        55           S   tau(  55) = (   0.8750000   0.8750000   0.1250000  )
        56           S   tau(  56) = (   0.8750000   0.6250000   0.3750000  )
        57           Zn  tau(  57) = (   0.5000000   0.5000000   0.5000000  )
        58           Zn  tau(  58) = (   0.5000000   0.7500000   0.7500000  )
        59           Zn  tau(  59) = (   0.7500000   0.5000000   0.7500000  )
        60           Zn  tau(  60) = (   0.7500000   0.7500000   0.5000000  )
        61           S   tau(  61) = (   0.6250000   0.8750000   0.8750000  )
        62           S   tau(  62) = (   0.6250000   0.6250000   0.6250000  )
[...]
       0.000  0.000 -0.000  0.996 -0.087
       0.738  0.647  0.193 -0.000 -0.000
     occupation matrix ns (before diag.):
       0.998 -0.000 -0.000  0.000  0.000
      -0.000  0.996 -0.000  0.000  0.000
      -0.000 -0.000  0.996  0.000  0.000
       0.000  0.000  0.000  0.998 -0.000
       0.000  0.000  0.000 -0.000  0.996
     ------------------------ ATOM   58 ------------------------
     Tr[ns( 58)] =   9.96421
     eigenvalues:
       0.996  0.996  0.996  0.998  0.998
     eigenvectors (columns):
      -0.000  0.000  0.000 -0.866 -0.500
      -0.707 -0.293 -0.644  0.000 -0.000
       0.000 -0.910  0.414  0.000 -0.000
      -0.000 -0.000 -0.000 -0.500  0.866
      -0.707  0.293  0.644  0.000  0.000
     occupation matrix ns (before diag.):
       0.998 -0.000  0.000 -0.000 -0.000
      -0.000  0.996 -0.000 -0.000 -0.000
       0.000 -0.000  0.996 -0.000  0.000
      -0.000 -0.000 -0.000  0.998  0.000
      -0.000 -0.000  0.000  0.000  0.996
     ------------------------ ATOM   59 ------------------------
     Tr[ns( 59)] =   9.96421
     eigenvalues:
       0.996  0.996  0.996  0.998  0.998
     eigenvectors (columns):
      -0.000 -0.000 -0.000  0.866  0.500
       0.000  0.910 -0.414 -0.000  0.000
      -0.707  0.293  0.644 -0.000  0.000
       0.000 -0.000 -0.000 -0.500  0.866
      -0.707 -0.293 -0.644 -0.000 -0.000
     occupation matrix ns (before diag.):
       0.998  0.000 -0.000  0.000 -0.000
       0.000  0.996 -0.000  0.000  0.000
      -0.000 -0.000  0.996  0.000 -0.000
       0.000  0.000  0.000  0.998 -0.000
      -0.000  0.000 -0.000 -0.000  0.996
     ------------------------ ATOM   60 ------------------------
     Tr[ns( 60)] =   9.96421
     eigenvalues:
       0.996  0.996  0.996  0.998  0.998
     eigenvectors (columns):
       0.000 -0.000 -0.000  0.000  1.000
      -0.707 -0.293 -0.644  0.000 -0.000
       0.707 -0.293 -0.644 -0.000 -0.000
      -0.000 -0.000  0.000 -1.000  0.000
      -0.000  0.910 -0.414  0.000  0.000
     occupation matrix ns (before diag.):
       0.998 -0.000 -0.000  0.000  0.000
      -0.000  0.996  0.000 -0.000  0.000
      -0.000  0.000  0.996  0.000  0.000
       0.000 -0.000  0.000  0.998 -0.000
       0.000  0.000  0.000 -0.000  0.996

     Number of occupied Hubbard levels =  318.8546

     HUBBARD ENERGY =    0.2096  (Ry)

     End of self-consistent calculation

          k = 0.0000 0.0000 0.0000 (158355 PWs)   bands (ev):

    -7.4525  -6.9676  -6.9675  -6.9675  -6.9675  -6.9674  -6.9674  -6.6948
    -6.6948  -6.6948  -6.6948  -6.6947  -6.6947  -6.6947  -6.6947  -6.6947
    -6.6947  -6.6947  -6.6947  -6.6829  -6.6829  -6.6829  -6.6829  -6.4402
    -6.4402  -6.4402  -6.4300  -6.4300  -6.4300  -6.4299  -6.4299  -6.4299
    -2.7708  -2.7708  -2.7708  -2.6937  -2.6937  -2.6937  -2.6937  -2.6937
    -2.6936  -2.6936  -2.6936  -2.6787  -2.6787  -2.6787  -2.6787  -2.6787
    -2.6787  -2.6787  -2.6787  -2.6787  -2.6786  -2.6786  -2.6786  -2.6722
    -2.6722  -2.6722  -2.6722  -2.6722  -2.6722  -2.6712  -2.6711  -2.6711
    -2.6603  -2.6603  -2.6603  -2.6603  -2.6603  -2.6603  -2.6603  -2.6603
    -2.6603  -2.6602  -2.6602  -2.6602  -2.6542  -2.6542  -2.6542  -2.6542
    -2.6542  -2.6542  -2.6542  -2.6542  -2.6542  -2.6541  -2.6541  -2.6541
    -2.6256  -2.6256  -2.6256  -2.6256  -2.6256  -2.6255  -2.6076  -2.6076
    -2.6076  -2.6076  -2.6076  -2.6076  -2.5311  -2.5311  -2.5311  -2.5311
    -2.5311  -2.5311  -2.4896  -2.4896  -2.4896  -2.4896  -2.4896  -2.4896
    -2.4823  -2.4823  -2.4823  -2.4823  -2.4823  -2.4822  -2.4791  -2.4791
    -2.4791  -2.4791  -2.4791  -2.4791  -2.4791  -2.4791  -2.4791  -2.4791
    -2.4791  -2.4790  -2.4756  -2.4756  -2.4756  -2.4756  -2.4756  -2.4756
    -2.4756  -2.4756  -2.4756  -2.4755  -2.4755  -2.4754  -2.4659  -2.4659
    -2.4539  -2.4539  -2.4539  -2.4538  -2.4538  -2.4537  -2.4343  -2.4343
    -2.4343  -2.4343  -2.4343  -2.4343  -2.4342  -2.4342  -2.4306  -2.4306
    -2.4306  -2.4306  -2.4306  -2.4305  -2.3953  -2.3952  -2.3952  -2.2420
    -2.2420  -2.2420  -2.2420  -2.2420  -2.2420  -2.2419  -2.2419  -2.2419
    -2.2419  -2.2419  -2.2419  -2.1247  -2.1247  -2.1247  -2.1247  -2.0480
    -2.0480  -2.0480  -1.9011  -1.9011  -1.9011  -1.9011  -1.9011  -1.9011
     0.3918   0.3918   0.3918   0.3918   0.8128   0.8128   0.8129   1.0067
     1.0068   1.0068   1.0068   1.0068   1.0068   1.4561   1.4561   1.4561
     1.4561   1.4562   1.4562   1.4562   1.4562   1.4562   1.4562   1.4562
     1.4562   2.7365   2.7365   2.7365   2.7365   2.7365   2.7366   2.7631
     2.7631   2.7631   2.7631   2.7632   2.7632   2.8702   2.8702   2.8702
     2.8702   2.8702   2.8702   2.9959   2.9959   2.9959   2.9959   2.9959
     2.9959   2.9959   2.9959   2.9959   2.9959   2.9959   2.9959   3.3357
     3.3357   3.3357   3.3357   3.3357   3.3357   4.2329   4.2329   4.2329
     4.2330   4.2330   4.2330   4.2330   4.2330   4.2330   4.2330   4.2330
     4.2330   4.5517   4.5517   4.5517   4.5517   4.5517   4.5517   4.5517
     4.5517   4.5518   4.5518   4.5518   4.5518   4.5904   4.5904   4.5904
     4.5904   4.5904   4.5904   4.5904   4.5904   5.3909   5.3909   5.3909
     7.5758   8.8131   8.8131   8.8131   8.8131   8.9781   8.9781   8.9781
     9.6111   9.6111   9.6111   9.9842   9.9842   9.9842   9.9842   9.9843
     9.9843  10.1162  10.1162  10.1162  10.1162  10.1162  10.1162  10.3252
    10.3252  10.3252  10.3252  10.3252  10.3253  10.3253  10.3253  10.3253
    10.3253  10.3253  10.3253  11.2237  11.2237  11.2237  11.2237  11.2237
    11.2237  11.4867  11.4867  11.4867  11.4867  11.4867  11.4867  11.9411
    11.9411  12.1839  12.1855  12.1856  12.1856  12.1856  12.1856  12.1856
    12.1856

     occupation numbers
     1.0000   1.0000   1.0000   1.0000   1.0000   1.0000   1.0000   1.0000
     1.0000   1.0000   1.0000   1.0000   1.0000   1.0000   1.0000   1.0000
     1.0000   1.0000   1.0000   1.0000   1.0000   1.0000   1.0000   1.0000
     1.0000   1.0000   1.0000   1.0000   1.0000   1.0000   1.0000   1.0000
     1.0000   1.0000   1.0000   1.0000   1.0000   1.0000   1.0000   1.0000
     1.0000   1.0000   1.0000   1.0000   1.0000   1.0000   1.0000   1.0000
     1.0000   1.0000   1.0000   1.0000   1.0000   1.0000   1.0000   1.0000
     1.0000   1.0000   1.0000   1.0000   1.0000   1.0000   1.0000   1.0000
     1.0000   1.0000   1.0000   1.0000   1.0000   1.0000   1.0000   1.0000
     1.0000   1.0000   1.0000   1.0000   1.0000   1.0000   1.0000   1.0000
     1.0000   1.0000   1.0000   1.0000   1.0000   1.0000   1.0000   1.0000
     1.0000   1.0000   1.0000   1.0000   1.0000   1.0000   1.0000   1.0000
     1.0000   1.0000   1.0000   1.0000   1.0000   1.0000   1.0000   1.0000
     1.0000   1.0000   1.0000   1.0000   1.0000   1.0000   1.0000   1.0000
     1.0000   1.0000   1.0000   1.0000   1.0000   1.0000   1.0000   1.0000
     1.0000   1.0000   1.0000   1.0000   1.0000   1.0000   1.0000   1.0000
     1.0000   1.0000   1.0000   1.0000   1.0000   1.0000   1.0000   1.0000
     1.0000   1.0000   1.0000   1.0000   1.0000   1.0000   1.0000   1.0000
     1.0000   1.0000   1.0000   1.0000   1.0000   1.0000   1.0000   1.0000
     1.0000   1.0000   1.0000   1.0000   1.0000   1.0000   1.0000   1.0000
     1.0000   1.0000   1.0000   1.0000   1.0000   1.0000   1.0000   1.0000
     1.0000   1.0000   1.0000   1.0000   1.0000   1.0000   1.0000   1.0000
     1.0000   1.0000   1.0000   1.0000   1.0000   1.0000   1.0000   1.0000
     1.0000   1.0000   1.0000   1.0000   1.0000   1.0000   1.0000   1.0000
     1.0000   1.0000   1.0000   1.0000   1.0000   1.0000   1.0000   1.0000
     1.0000   1.0000   1.0000   1.0000   1.0000   1.0000   1.0000   1.0000
     1.0000   1.0000   1.0000   1.0000   1.0000   1.0000   1.0000   1.0000
     1.0000   1.0000   1.0000   1.0000   1.0000   1.0000   1.0000   1.0000
     1.0000   1.0000   1.0000   1.0000   1.0000   1.0000   1.0000   1.0000
     1.0000   1.0000   1.0000   1.0000   1.0000   1.0000   1.0000   1.0000
     1.0000   1.0000   1.0000   1.0000   1.0000   1.0000   1.0000   1.0000
     1.0000   1.0000   1.0000   1.0000   1.0000   1.0000   1.0000   1.0000
     1.0000   1.0000   1.0000   1.0000   1.0000   1.0000   1.0000   1.0000
     1.0000   1.0000   1.0000   1.0000   1.0000   1.0000   1.0000   1.0000
     1.0000   1.0000   1.0000   1.0000   1.0000   1.0000   1.0000   1.0000
     1.0000   1.0000   1.0000   1.0000   1.0000   1.0000   1.0000   1.0000
     0.0000   0.0000   0.0000   0.0000   0.0000   0.0000   0.0000   0.0000
     0.0000   0.0000   0.0000   0.0000   0.0000   0.0000   0.0000   0.0000
     0.0000   0.0000   0.0000   0.0000   0.0000   0.0000   0.0000   0.0000
     0.0000   0.0000   0.0000   0.0000   0.0000   0.0000   0.0000   0.0000
     0.0000   0.0000   0.0000   0.0000   0.0000   0.0000   0.0000   0.0000
     0.0000   0.0000   0.0000   0.0000   0.0000   0.0000   0.0000   0.0000
     0.0000   0.0000   0.0000   0.0000   0.0000   0.0000   0.0000   0.0000
     0.0000

[...]

          k = 0.2500-0.5000-0.5000 (158052 PWs)   bands (ev):

[...]

          k =-0.5000-0.5000-0.5000 (158408 PWs)   bands (ev):

    -7.0875  -7.0875  -7.0874  -7.0874  -7.0874  -7.0874  -7.0874  -7.0874
    -6.5635  -6.5635  -6.5635  -6.5635  -6.5635  -6.5635  -6.5634  -6.5634
    -6.5633  -6.5633  -6.5633  -6.5633  -6.5633  -6.5633  -6.5633  -6.5633
    -6.5633  -6.5633  -6.5633  -6.5633  -6.5633  -6.5633  -6.5633  -6.5633
    -2.7221  -2.7221  -2.7220  -2.7220  -2.7220  -2.7220  -2.7220  -2.7220
    -2.7220  -2.7220  -2.7220  -2.7219  -2.7219  -2.7219  -2.7219  -2.7219
    -2.6645  -2.6645  -2.6645  -2.6645  -2.6645  -2.6645  -2.6645  -2.6645
    -2.6645  -2.6645  -2.6645  -2.6645  -2.6644  -2.6644  -2.6644  -2.6644
    -2.6644  -2.6643  -2.6643  -2.6643  -2.6643  -2.6643  -2.6643  -2.6642
    -2.6148  -2.6148  -2.6148  -2.6148  -2.6147  -2.6147  -2.6147  -2.6147
    -2.6090  -2.6090  -2.6090  -2.6090  -2.6089  -2.6089  -2.6089  -2.6089
    -2.6089  -2.6089  -2.6089  -2.6089  -2.6089  -2.6089  -2.6089  -2.6088
    -2.6088  -2.6088  -2.6088  -2.6088  -2.6088  -2.6087  -2.6087  -2.6087
    -2.5283  -2.5283  -2.5283  -2.5283  -2.5283  -2.5283  -2.5283  -2.5283
    -2.5283  -2.5282  -2.5282  -2.5282  -2.5282  -2.5282  -2.5282  -2.5282
    -2.5282  -2.5281  -2.5281  -2.5281  -2.5281  -2.5281  -2.5281  -2.5281
    -2.4620  -2.4620  -2.4620  -2.4620  -2.4620  -2.4620  -2.4620  -2.4620
    -2.4620  -2.4620  -2.4618  -2.4618  -2.4618  -2.4618  -2.4618  -2.4618
    -2.4226  -2.4226  -2.4226  -2.4226  -2.4226  -2.4226  -2.4225  -2.4225
    -2.4225  -2.4225  -2.4225  -2.4225  -2.4225  -2.4225  -2.4225  -2.4225
    -2.4225  -2.4224  -2.4224  -2.4224  -2.4224  -2.4223  -2.4223  -2.4223
    -2.1006  -2.1006  -2.1006  -2.1006  -2.1005  -2.1005  -2.1005  -2.1005
    -2.1005  -2.1005  -2.1005  -2.1005  -2.1005  -2.1005  -2.1005  -2.1004
    -2.1004  -2.1004  -2.1004  -2.1003  -2.1003  -2.1003  -2.1003  -2.1003
     1.0057   1.0058   1.0058   1.0058   1.0058   1.0058   1.0058   1.0058
     1.0058   1.0058   1.0058   1.0058   1.0058   1.0058   1.0058   1.0058
     1.0058   1.0058   1.0059   1.0059   1.0059   1.0059   1.0059   1.0059
     2.5555   2.5555   2.5555   2.5555   2.5556   2.5556   2.5556   2.5556
     3.0974   3.0974   3.0975   3.0975   3.0975   3.0975   3.0975   3.0975
     3.0975   3.0975   3.0975   3.0975   3.0975   3.0975   3.0975   3.0975
     3.0975   3.0975   3.0975   3.0975   3.0975   3.0975   3.0975   3.0975
     3.9079   3.9079   3.9079   3.9079   3.9079   3.9079   3.9079   3.9079
     3.9079   3.9079   3.9079   3.9079   3.9080   3.9080   3.9080   3.9080
     3.9080   3.9080   3.9080   3.9080   3.9080   3.9080   3.9080   3.9080
     4.9557   4.9557   4.9557   4.9557   4.9557   4.9557   4.9557   4.9557
     4.9557   4.9557   4.9557   4.9557   4.9557   4.9557   4.9557   4.9557
     8.9637   8.9637   8.9638   8.9638   8.9638   8.9638   8.9638   8.9638
     9.8623   9.8624   9.8624   9.8624   9.8624   9.8624   9.8624   9.8624
     9.8624   9.8624   9.8624   9.8624   9.8624   9.8624   9.8624   9.8624
     9.8624   9.8624   9.8624   9.8624   9.8624   9.8624   9.8624   9.8624
    11.4722  11.4722  11.4722  11.4722  11.4722  11.4722  11.4722  11.4722
    11.4722  11.4722  11.4722  11.4722  11.4722  11.4722  11.4722  11.4722
    11.4722  11.4722  11.4722  11.4722  11.4722  11.4723  11.4723  11.4723
    12.4189

     occupation numbers
     1.0000   1.0000   1.0000   1.0000   1.0000   1.0000   1.0000   1.0000
     1.0000   1.0000   1.0000   1.0000   1.0000   1.0000   1.0000   1.0000
     1.0000   1.0000   1.0000   1.0000   1.0000   1.0000   1.0000   1.0000
     1.0000   1.0000   1.0000   1.0000   1.0000   1.0000   1.0000   1.0000
     1.0000   1.0000   1.0000   1.0000   1.0000   1.0000   1.0000   1.0000
     1.0000   1.0000   1.0000   1.0000   1.0000   1.0000   1.0000   1.0000
     1.0000   1.0000   1.0000   1.0000   1.0000   1.0000   1.0000   1.0000
     1.0000   1.0000   1.0000   1.0000   1.0000   1.0000   1.0000   1.0000
     1.0000   1.0000   1.0000   1.0000   1.0000   1.0000   1.0000   1.0000
     1.0000   1.0000   1.0000   1.0000   1.0000   1.0000   1.0000   1.0000
     1.0000   1.0000   1.0000   1.0000   1.0000   1.0000   1.0000   1.0000
     1.0000   1.0000   1.0000   1.0000   1.0000   1.0000   1.0000   1.0000
     1.0000   1.0000   1.0000   1.0000   1.0000   1.0000   1.0000   1.0000
     1.0000   1.0000   1.0000   1.0000   1.0000   1.0000   1.0000   1.0000
     1.0000   1.0000   1.0000   1.0000   1.0000   1.0000   1.0000   1.0000
     1.0000   1.0000   1.0000   1.0000   1.0000   1.0000   1.0000   1.0000
     1.0000   1.0000   1.0000   1.0000   1.0000   1.0000   1.0000   1.0000
     1.0000   1.0000   1.0000   1.0000   1.0000   1.0000   1.0000   1.0000
     1.0000   1.0000   1.0000   1.0000   1.0000   1.0000   1.0000   1.0000
     1.0000   1.0000   1.0000   1.0000   1.0000   1.0000   1.0000   1.0000
     1.0000   1.0000   1.0000   1.0000   1.0000   1.0000   1.0000   1.0000
     1.0000   1.0000   1.0000   1.0000   1.0000   1.0000   1.0000   1.0000
     1.0000   1.0000   1.0000   1.0000   1.0000   1.0000   1.0000   1.0000
     1.0000   1.0000   1.0000   1.0000   1.0000   1.0000   1.0000   1.0000
     1.0000   1.0000   1.0000   1.0000   1.0000   1.0000   1.0000   1.0000
     1.0000   1.0000   1.0000   1.0000   1.0000   1.0000   1.0000   1.0000
     1.0000   1.0000   1.0000   1.0000   1.0000   1.0000   1.0000   1.0000
     1.0000   1.0000   1.0000   1.0000   1.0000   1.0000   1.0000   1.0000
     1.0000   1.0000   1.0000   1.0000   1.0000   1.0000   1.0000   1.0000
     1.0000   1.0000   1.0000   1.0000   1.0000   1.0000   1.0000   1.0000
     1.0000   1.0000   1.0000   1.0000   1.0000   1.0000   1.0000   1.0000
     1.0000   1.0000   1.0000   1.0000   1.0000   1.0000   1.0000   1.0000
     1.0000   1.0000   1.0000   1.0000   1.0000   1.0000   1.0000   1.0000
     1.0000   1.0000   1.0000   1.0000   1.0000   1.0000   1.0000   1.0000
     1.0000   1.0000   1.0000   1.0000   1.0000   1.0000   1.0000   1.0000
     1.0000   1.0000   1.0000   1.0000   1.0000   1.0000   1.0000   1.0000
     0.0000   0.0000   0.0000   0.0000   0.0000   0.0000   0.0000   0.0000
     0.0000   0.0000   0.0000   0.0000   0.0000   0.0000   0.0000   0.0000
     0.0000   0.0000   0.0000   0.0000   0.0000   0.0000   0.0000   0.0000
     0.0000   0.0000   0.0000   0.0000   0.0000   0.0000   0.0000   0.0000
     0.0000   0.0000   0.0000   0.0000   0.0000   0.0000   0.0000   0.0000
     0.0000   0.0000   0.0000   0.0000   0.0000   0.0000   0.0000   0.0000
     0.0000   0.0000   0.0000   0.0000   0.0000   0.0000   0.0000   0.0000
     0.0000

     highest occupied, lowest unoccupied level (ev):     5.3909    7.5758

!    total energy              =   -9924.14006707 Ry
     total all-electron energy =   -140500.080655 Ry
     estimated scf accuracy    <       0.00000042 Ry

     The total energy is the sum of the following terms:
     one-electron contribution =   -2758.30923999 Ry
     hartree contribution      =    1966.53479880 Ry
     xc contribution           =   -1675.71813126 Ry
     ewald contribution        =   -2927.19912172 Ry
     Hubbard energy            =       0.20963483 Ry
     one-center paw contrib.   =   -4529.65800773 Ry
      -> PAW hartree energy AE =     123.65467913 Ry
      -> PAW hartree energy PS =    -123.00882634 Ry
      -> PAW xc energy AE      =    -143.25336221 Ry
      -> PAW xc energy PS      =      47.19053679 Ry
      -> total E_H with PAW    =    1967.18065159 Ry
      -> total E_XC with PAW   =   -1771.78095668 Ry

     convergence has been achieved in   9 iterations

     Writing all to output data dir ./out/ZnS_hub.save/

     General routines

     Parallel routines

     Hubbard U routines

     PAW routines

   This run was terminated on:  11:22:44   1Jul2024

   JOB DONE.