     Program PWSCF v.7.2 starts on 22Mar2024 at  0:30:39

     Waiting for input...
     Reading input from standard input

     Current dimensions of program PWSCF are:
     Max number of different atomic species (ntypx) = 10
     Max number of k-points (npk) = 120000
     Max angular momentum in pseudopotentials (lmaxx) =  4
     file Ni.pbe-spn-kjpaw_psl.1.0.0.UPF: wavefunction(s)  3P 3D renormalized
     Found identity + (  0.0000 -0.5000 -0.5000) symmetry
     This is a supercell, fractional translations are disabled
     Message from routine setup:
     using ibrav=0 with symmetry is DISCOURAGED, use correct ibrav instead

     R & G space division:  proc/nbgrp/npool/nimage =      20
     Subspace diagonalization in iterative solution of the eigenvalue problem:
     a serial algorithm will be used

     Using Slab Decomposition

     bravais-lattice index     =            0
     lattice parameter (alat)  =       6.5671  a.u.
     unit-cell volume          =     283.2147 (a.u.)^3
     number of atoms/cell      =            4
     number of atomic types    =            1
     number of electrons       =        72.00
     number of Kohn-Sham states=           43
     kinetic-energy cutoff     =     150.0000  Ry
     charge density cutoff     =     600.0000  Ry
     scf convergence threshold =      8.0E-08
     mixing beta               =       0.7000
     number of iterations used =            8  plain     mixing
     Exchange-correlation= SLA  PW   PBX  PBC
                           (   1   4   3   4   0   0   0)

     celldm(1)=   6.567074  celldm(2)=   0.000000  celldm(3)=   0.000000
     celldm(4)=   0.000000  celldm(5)=   0.000000  celldm(6)=   0.000000

     crystal axes: (cart. coord. in units of alat)
               a(1) = (   1.000000   0.000000   0.000000 )
               a(2) = (   0.000000   1.000000   0.000000 )
               a(3) = (   0.000000   0.000000   1.000000 )

     reciprocal axes: (cart. coord. in units 2 pi/alat)
               b(1) = (  1.000000  0.000000  0.000000 )
               b(2) = (  0.000000  1.000000  0.000000 )
               b(3) = (  0.000000  0.000000  1.000000 )

     PseudoPot. # 1 for Ni read from file:
     /truba/home/amuhaymin/ZnS/pseudo/QE/Ni.pbe-spn-kjpaw_psl.1.0.0.UPF
     MD5 check sum: 6e86b733589c3ad8389697b807d86aa7
     Pseudo is Projector augmented-wave + core cor, Zval = 18.0
     Generated using &quot;atomic&quot; code by A. Dal Corso  v.6.3
     Shape of augmentation charge: PSQ
     Using radial grid of 1195 points,  6 beta functions with:
                l(1) =   0
                l(2) =   0
                l(3) =   1
                l(4) =   1
                l(5) =   2
                l(6) =   2
     Q(r) pseudized with 0 coefficients

     atomic species   valence    mass     pseudopotential
        Ni            18.00    58.69340     Ni( 1.00)

     Starting magnetic structure
     atomic species   magnetization
        Ni           0.278

     48 Sym. Ops., with inversion, found

                                    s                        frac. trans.

      isym =  1     identity

 cryst.   s( 1) = (     1          0          0      )
                  (     0          1          0      )
                  (     0          0          1      )

 cart.    s( 1) = (  1.0000000  0.0000000  0.0000000 )
                  (  0.0000000  1.0000000  0.0000000 )
                  (  0.0000000  0.0000000  1.0000000 )

      isym =  2     180 deg rotation - cart. axis [0,0,1]

[...]

 cryst.   s( 9) = (     0          0          1      )
                  (     0         -1          0      )
                  (     1          0          0      )

 cart.    s( 9) = (  0.0000000  0.0000000  1.0000000 )
                  (  0.0000000 -1.0000000  0.0000000 )
                  (  1.0000000  0.0000000  0.0000000 )

[...]

 cryst.   s(10) = (     0          0         -1      )
                  (     0         -1          0      )
                  (    -1          0          0      )

 cart.    s(10) = (  0.0000000  0.0000000 -1.0000000 )
                  (  0.0000000 -1.0000000  0.0000000 )
                  ( -1.0000000  0.0000000  0.0000000 )

[...]

      isym = 24     120 deg rotation - cart. axis [-1,-1,1]

[...]

      isym = 25     inversion

[...]

      isym = 26     inv. 180 deg rotation - cart. axis [0,0,1]

[...]

      isym = 48     inv. 120 deg rotation - cart. axis [-1,-1,1]

 cryst.   s(48) = (     0         -1          0      )
                  (     0          0          1      )
                  (     1          0          0      )

 cart.    s(48) = (  0.0000000  0.0000000  1.0000000 )
                  ( -1.0000000  0.0000000  0.0000000 )
                  (  0.0000000  1.0000000  0.0000000 )

   Cartesian axes

     site n.     atom                  positions (alat units)
         1           Ni  tau(   1) = (   0.0000000   0.0000000   0.0000000  )
         2           Ni  tau(   2) = (   0.0000000   0.5000000   0.5000000  )
         3           Ni  tau(   3) = (   0.5000000   0.0000000   0.5000000  )
         4           Ni  tau(   4) = (   0.5000000   0.5000000   0.0000000  )

   Crystallographic axes

     site n.     atom                  positions (cryst. coord.)
         1           Ni  tau(   1) = (  0.0000000  0.0000000  0.0000000  )
         2           Ni  tau(   2) = (  0.0000000  0.5000000  0.5000000  )
         3           Ni  tau(   3) = (  0.5000000  0.0000000  0.5000000  )
         4           Ni  tau(   4) = (  0.5000000  0.5000000  0.0000000  )

     number of k points=   165  Methfessel-Paxton smearing, width (Ry)=  0.0220
                       cart. coord. in units 2pi/alat
        k(    1) = (   0.0000000   0.0000000   0.0000000), wk =   0.0002441
        k(    2) = (   0.0000000   0.0000000   0.0625000), wk =   0.0014648
        k(    3) = (   0.0000000   0.0000000   0.1250000), wk =   0.0014648
        k(    4) = (   0.0000000   0.0000000   0.1875000), wk =   0.0014648
        k(    5) = (   0.0000000   0.0000000   0.2500000), wk =   0.0014648
        k(    6) = (   0.0000000   0.0000000   0.3125000), wk =   0.0014648
        k(    7) = (   0.0000000   0.0000000   0.3750000), wk =   0.0014648
        k(    8) = (   0.0000000   0.0000000   0.4375000), wk =   0.0014648
        k(    9) = (   0.0000000   0.0000000  -0.5000000), wk =   0.0007324
        k(   10) = (   0.0000000   0.0625000   0.0625000), wk =   0.0029297
        k(   11) = (   0.0000000   0.0625000   0.1250000), wk =   0.0058594
        k(   12) = (   0.0000000   0.0625000   0.1875000), wk =   0.0058594
        k(   13) = (   0.0000000   0.0625000   0.2500000), wk =   0.0058594
        k(   14) = (   0.0000000   0.0625000   0.3125000), wk =   0.0058594
        k(   15) = (   0.0000000   0.0625000   0.3750000), wk =   0.0058594
        k(   16) = (   0.0000000   0.0625000   0.4375000), wk =   0.0058594
        k(   17) = (   0.0000000   0.0625000  -0.5000000), wk =   0.0029297
        k(   18) = (   0.0000000   0.1250000   0.1250000), wk =   0.0029297
        k(   19) = (   0.0000000   0.1250000   0.1875000), wk =   0.0058594
        k(   20) = (   0.0000000   0.1250000   0.2500000), wk =   0.0058594
        k(   21) = (   0.0000000   0.1250000   0.3125000), wk =   0.0058594
        k(   22) = (   0.0000000   0.1250000   0.3750000), wk =   0.0058594
        k(   23) = (   0.0000000   0.1250000   0.4375000), wk =   0.0058594
        k(   24) = (   0.0000000   0.1250000  -0.5000000), wk =   0.0029297
        k(   25) = (   0.0000000   0.1875000   0.1875000), wk =   0.0029297
        k(   26) = (   0.0000000   0.1875000   0.2500000), wk =   0.0058594
        k(   27) = (   0.0000000   0.1875000   0.3125000), wk =   0.0058594
        k(   28) = (   0.0000000   0.1875000   0.3750000), wk =   0.0058594
        k(   29) = (   0.0000000   0.1875000   0.4375000), wk =   0.0058594
        k(   30) = (   0.0000000   0.1875000  -0.5000000), wk =   0.0029297
        k(   31) = (   0.0000000   0.2500000   0.2500000), wk =   0.0029297
        k(   32) = (   0.0000000   0.2500000   0.3125000), wk =   0.0058594
        k(   33) = (   0.0000000   0.2500000   0.3750000), wk =   0.0058594
        k(   34) = (   0.0000000   0.2500000   0.4375000), wk =   0.0058594
        k(   35) = (   0.0000000   0.2500000  -0.5000000), wk =   0.0029297
        k(   36) = (   0.0000000   0.3125000   0.3125000), wk =   0.0029297
        k(   37) = (   0.0000000   0.3125000   0.3750000), wk =   0.0058594
        k(   38) = (   0.0000000   0.3125000   0.4375000), wk =   0.0058594
        k(   39) = (   0.0000000   0.3125000  -0.5000000), wk =   0.0029297
        k(   40) = (   0.0000000   0.3750000   0.3750000), wk =   0.0029297
        k(   41) = (   0.0000000   0.3750000   0.4375000), wk =   0.0058594
        k(   42) = (   0.0000000   0.3750000  -0.5000000), wk =   0.0029297
        k(   43) = (   0.0000000   0.4375000   0.4375000), wk =   0.0029297
        k(   44) = (   0.0000000   0.4375000  -0.5000000), wk =   0.0029297
        k(   45) = (   0.0000000  -0.5000000  -0.5000000), wk =   0.0007324
        k(   46) = (   0.0625000   0.0625000   0.0625000), wk =   0.0019531
        k(   47) = (   0.0625000   0.0625000   0.1250000), wk =   0.0058594
        k(   48) = (   0.0625000   0.0625000   0.1875000), wk =   0.0058594
        k(   49) = (   0.0625000   0.0625000   0.2500000), wk =   0.0058594
        k(   50) = (   0.0625000   0.0625000   0.3125000), wk =   0.0058594
        k(   51) = (   0.0625000   0.0625000   0.3750000), wk =   0.0058594
        k(   52) = (   0.0625000   0.0625000   0.4375000), wk =   0.0058594
        k(   53) = (   0.0625000   0.0625000  -0.5000000), wk =   0.0029297
        k(   54) = (   0.0625000   0.1250000   0.1250000), wk =   0.0058594
        k(   55) = (   0.0625000   0.1250000   0.1875000), wk =   0.0117188
        k(   56) = (   0.0625000   0.1250000   0.2500000), wk =   0.0117188
        k(   57) = (   0.0625000   0.1250000   0.3125000), wk =   0.0117188
        k(   58) = (   0.0625000   0.1250000   0.3750000), wk =   0.0117188
        k(   59) = (   0.0625000   0.1250000   0.4375000), wk =   0.0117188
        k(   60) = (   0.0625000   0.1250000  -0.5000000), wk =   0.0058594
[...]
        k(  151) = (   0.3125000   0.3750000   0.4375000), wk =   0.0117188
        k(  152) = (   0.3125000   0.3750000  -0.5000000), wk =   0.0058594
        k(  153) = (   0.3125000   0.4375000   0.4375000), wk =   0.0058594
        k(  154) = (   0.3125000   0.4375000  -0.5000000), wk =   0.0058594
        k(  155) = (   0.3125000  -0.5000000  -0.5000000), wk =   0.0014648
        k(  156) = (   0.3750000   0.3750000   0.3750000), wk =   0.0019531
        k(  157) = (   0.3750000   0.3750000   0.4375000), wk =   0.0058594
        k(  158) = (   0.3750000   0.3750000  -0.5000000), wk =   0.0029297
        k(  159) = (   0.3750000   0.4375000   0.4375000), wk =   0.0058594
        k(  160) = (   0.3750000   0.4375000  -0.5000000), wk =   0.0058594
        k(  161) = (   0.3750000  -0.5000000  -0.5000000), wk =   0.0014648
        k(  162) = (   0.4375000   0.4375000   0.4375000), wk =   0.0019531
        k(  163) = (   0.4375000   0.4375000  -0.5000000), wk =   0.0029297
        k(  164) = (   0.4375000  -0.5000000  -0.5000000), wk =   0.0014648
        k(  165) = (  -0.5000000  -0.5000000  -0.5000000), wk =   0.0002441

                       cryst. coord.
        k(    1) = (   0.0000000   0.0000000   0.0000000), wk =   0.0002441
        k(    2) = (   0.0000000   0.0000000   0.0625000), wk =   0.0014648
        k(    3) = (   0.0000000   0.0000000   0.1250000), wk =   0.0014648
        k(    4) = (   0.0000000   0.0000000   0.1875000), wk =   0.0014648
        k(    5) = (   0.0000000   0.0000000   0.2500000), wk =   0.0014648
        k(    6) = (   0.0000000   0.0000000   0.3125000), wk =   0.0014648
        k(    7) = (   0.0000000   0.0000000   0.3750000), wk =   0.0014648
        k(    8) = (   0.0000000   0.0000000   0.4375000), wk =   0.0014648
        k(    9) = (   0.0000000   0.0000000  -0.5000000), wk =   0.0007324
        k(   10) = (   0.0000000   0.0625000   0.0625000), wk =   0.0029297
        k(   11) = (   0.0000000   0.0625000   0.1250000), wk =   0.0058594
        k(   12) = (   0.0000000   0.0625000   0.1875000), wk =   0.0058594
        k(   13) = (   0.0000000   0.0625000   0.2500000), wk =   0.0058594
        k(   14) = (   0.0000000   0.0625000   0.3125000), wk =   0.0058594
        k(   15) = (   0.0000000   0.0625000   0.3750000), wk =   0.0058594
        k(   16) = (   0.0000000   0.0625000   0.4375000), wk =   0.0058594
        k(   17) = (   0.0000000   0.0625000  -0.5000000), wk =   0.0029297
        k(   18) = (   0.0000000   0.1250000   0.1250000), wk =   0.0029297
        k(   19) = (   0.0000000   0.1250000   0.1875000), wk =   0.0058594
        k(   20) = (   0.0000000   0.1250000   0.2500000), wk =   0.0058594
        k(   21) = (   0.0000000   0.1250000   0.3125000), wk =   0.0058594
        k(   22) = (   0.0000000   0.1250000   0.3750000), wk =   0.0058594
        k(   23) = (   0.0000000   0.1250000   0.4375000), wk =   0.0058594
        k(   24) = (   0.0000000   0.1250000  -0.5000000), wk =   0.0029297
        k(   25) = (   0.0000000   0.1875000   0.1875000), wk =   0.0029297
        k(   26) = (   0.0000000   0.1875000   0.2500000), wk =   0.0058594
        k(   27) = (   0.0000000   0.1875000   0.3125000), wk =   0.0058594
        k(   28) = (   0.0000000   0.1875000   0.3750000), wk =   0.0058594
        k(   29) = (   0.0000000   0.1875000   0.4375000), wk =   0.0058594
        k(   30) = (   0.0000000   0.1875000  -0.5000000), wk =   0.0029297
        k(   31) = (   0.0000000   0.2500000   0.2500000), wk =   0.0029297
        k(   32) = (   0.0000000   0.2500000   0.3125000), wk =   0.0058594
        k(   33) = (   0.0000000   0.2500000   0.3750000), wk =   0.0058594
        k(   34) = (   0.0000000   0.2500000   0.4375000), wk =   0.0058594
        k(   35) = (   0.0000000   0.2500000  -0.5000000), wk =   0.0029297
        k(   36) = (   0.0000000   0.3125000   0.3125000), wk =   0.0029297
        k(   37) = (   0.0000000   0.3125000   0.3750000), wk =   0.0058594
        k(   38) = (   0.0000000   0.3125000   0.4375000), wk =   0.0058594
        k(   39) = (   0.0000000   0.3125000  -0.5000000), wk =   0.0029297
        k(   40) = (   0.0000000   0.3750000   0.3750000), wk =   0.0029297
        k(   41) = (   0.0000000   0.3750000   0.4375000), wk =   0.0058594
        k(   42) = (   0.0000000   0.3750000  -0.5000000), wk =   0.0029297
        k(   43) = (   0.0000000   0.4375000   0.4375000), wk =   0.0029297
        k(   44) = (   0.0000000   0.4375000  -0.5000000), wk =   0.0029297
        k(   45) = (   0.0000000  -0.5000000  -0.5000000), wk =   0.0007324
        k(   46) = (   0.0625000   0.0625000   0.0625000), wk =   0.0019531
        k(   47) = (   0.0625000   0.0625000   0.1250000), wk =   0.0058594
        k(   48) = (   0.0625000   0.0625000   0.1875000), wk =   0.0058594
        k(   49) = (   0.0625000   0.0625000   0.2500000), wk =   0.0058594
        k(   50) = (   0.0625000   0.0625000   0.3125000), wk =   0.0058594
        k(   51) = (   0.0625000   0.0625000   0.3750000), wk =   0.0058594
        k(   52) = (   0.0625000   0.0625000   0.4375000), wk =   0.0058594
        k(   53) = (   0.0625000   0.0625000  -0.5000000), wk =   0.0029297
        k(   54) = (   0.0625000   0.1250000   0.1250000), wk =   0.0058594
        k(   55) = (   0.0625000   0.1250000   0.1875000), wk =   0.0117188
        k(   56) = (   0.0625000   0.1250000   0.2500000), wk =   0.0117188
        k(   57) = (   0.0625000   0.1250000   0.3125000), wk =   0.0117188
        k(   58) = (   0.0625000   0.1250000   0.3750000), wk =   0.0117188
        k(   59) = (   0.0625000   0.1250000   0.4375000), wk =   0.0117188
        k(   60) = (   0.0625000   0.1250000  -0.5000000), wk =   0.0058594
[...]
        k(  151) = (   0.3125000   0.3750000   0.4375000), wk =   0.0117188
        k(  152) = (   0.3125000   0.3750000  -0.5000000), wk =   0.0058594
        k(  153) = (   0.3125000   0.4375000   0.4375000), wk =   0.0058594
        k(  154) = (   0.3125000   0.4375000  -0.5000000), wk =   0.0058594
        k(  155) = (   0.3125000  -0.5000000  -0.5000000), wk =   0.0014648
        k(  156) = (   0.3750000   0.3750000   0.3750000), wk =   0.0019531
        k(  157) = (   0.3750000   0.3750000   0.4375000), wk =   0.0058594
        k(  158) = (   0.3750000   0.3750000  -0.5000000), wk =   0.0029297
        k(  159) = (   0.3750000   0.4375000   0.4375000), wk =   0.0058594
        k(  160) = (   0.3750000   0.4375000  -0.5000000), wk =   0.0058594
        k(  161) = (   0.3750000  -0.5000000  -0.5000000), wk =   0.0014648
        k(  162) = (   0.4375000   0.4375000   0.4375000), wk =   0.0019531
        k(  163) = (   0.4375000   0.4375000  -0.5000000), wk =   0.0029297
        k(  164) = (   0.4375000  -0.5000000  -0.5000000), wk =   0.0014648
        k(  165) = (  -0.5000000  -0.5000000  -0.5000000), wk =   0.0002441

     Check: negative core charge=   -0.000001
     Generating pointlists ...
     new r_m :   0.2917 (alat units)  1.9155 (a.u.) for type    1

     The initial density is read from file :
     out/Ni.save/charge-density

     Wavefunctions not found or not readable, recomputing them from scratch
     Starting wfcs are   40 randomized atomic wfcs +    3 random wfcs
     Checking if some PAW data can be deallocated...

     Self-consistent Calculation

     iteration #  1     ecut=   150.00 Ry     beta= 0.70
     Davidson diagonalization with overlap

     ethr =  1.00E-05,  avg # of iterations =  8.7

     Threshold (ethr) on eigenvalues was too large:
     Diagonalizing with lowered threshold

     Davidson diagonalization with overlap

[...]

     total energy              =   -1716.65463311 Ry
     estimated scf accuracy    <       0.00000021 Ry

     total magnetization       =     2.54 Bohr mag/cell
     absolute magnetization    =     2.89 Bohr mag/cell

[...]

     total energy              =   -1716.65463321 Ry
     estimated scf accuracy    <       0.00000084 Ry

[...]

     iteration #  4     ecut=   150.00 Ry     beta= 0.70
     Davidson diagonalization with overlap

     ethr =  2.94E-10,  avg # of iterations =  2.0

     Magnetic moment per site  (integrated on atomic sphere of radius R)
     atom   1 (R=0.292)  charge= 16.6731  magn=  0.6719
     atom   2 (R=0.292)  charge= 16.6731  magn=  0.6719
     atom   3 (R=0.292)  charge= 16.6731  magn=  0.6719
     atom   4 (R=0.292)  charge= 16.6731  magn=  0.6719

     End of self-consistent calculation

 ------ SPIN UP ------------

          k = 0.0000 0.0000 0.0000 (  8733 PWs)   bands (ev):

   -84.9406 -84.8880 -84.8880 -84.8880 -45.4147 -45.4147 -45.4147 -45.2720
   -45.2720 -45.2720 -45.2720 -45.2720 -45.2720 -45.1789 -45.1789 -45.1789
     9.4387  13.9001  13.9001  13.9001  14.3875  14.3875  14.3875  16.2690
    16.2690  16.2690  17.5233  17.5233  18.2803  18.2803  18.2803  18.3633
    18.3633  18.3633  18.3633  18.3633  18.3633  21.2020  21.2020  21.2020
    28.3088  28.3088  28.3088

     occupation numbers
     1.0000   1.0000   1.0000   1.0000   1.0000   1.0000   1.0000   1.0000
     1.0000   1.0000   1.0000   1.0000   1.0000   1.0000   1.0000   1.0000
     1.0000   1.0000   1.0000   1.0000   1.0000   1.0000   1.0000   1.0000
     1.0000   1.0000   1.0000   1.0000   1.0141   1.0141   1.0141   1.0262
     1.0262   1.0262   1.0262   1.0262   1.0262  -0.0000  -0.0000  -0.0000
    -0.0000  -0.0000  -0.0000

[...]

          k =-0.5000-0.5000-0.5000 (  8744 PWs)   bands (ev):

[...]

 ------ SPIN DOWN ----------

[...]

          k = 0.4375-0.5000-0.5000 (  8768 PWs)   bands (ev):

[...]

          k =-0.5000-0.5000-0.5000 (  8744 PWs)   bands (ev):

   -84.0552 -84.0552 -84.0552 -84.0552 -44.6103 -44.6103 -44.6103 -44.6103
   -44.3890 -44.3890 -44.3890 -44.3890 -44.3890 -44.3890 -44.3890 -44.3890
    14.1523  14.1523  14.1523  14.1523  16.9126  16.9126  16.9126  16.9126
    16.9126  16.9126  16.9126  16.9126  18.3101  18.3101  18.3101  18.3101
    19.0008  19.0008  19.0008  19.0008  19.0008  19.0008  19.0008  19.0008
    25.1378  25.1378  25.1378

     occupation numbers
     1.0000   1.0000   1.0000   1.0000   1.0000   1.0000   1.0000   1.0000
     1.0000   1.0000   1.0000   1.0000   1.0000   1.0000   1.0000   1.0000
     1.0000   1.0000   1.0000   1.0000   1.0000   1.0000   1.0000   1.0000
     1.0000   1.0000   1.0000   1.0000   1.0181   1.0181   1.0181   1.0181
     0.0836   0.0836   0.0836   0.0836   0.0836   0.0836   0.0836   0.0836
    -0.0000  -0.0000  -0.0000

     the Fermi energy is    18.8232 ev

!    total energy              =   -1716.65463328 Ry
     total all-electron energy =    -12166.383063 Ry
     estimated scf accuracy    <          2.7E-09 Ry
     smearing contrib. (-TS)   =      -0.00120810 Ry
     internal energy E=F+TS    =   -1716.65342518 Ry

     The total energy is F=E-TS. E is the sum of the following terms:
     one-electron contribution =    -721.94559676 Ry
     hartree contribution      =     411.93435940 Ry
     xc contribution           =    -137.44753816 Ry
     ewald contribution        =    -904.81412341 Ry
     one-center paw contrib.   =    -364.38052625 Ry
      -> PAW hartree energy AE =     268.06374533 Ry
      -> PAW hartree energy PS =    -266.37045015 Ry
      -> PAW xc energy AE      =    -125.61289817 Ry
      -> PAW xc energy PS      =      32.82447262 Ry
      -> total E_H with PAW    =     413.62765459 Ry
      -> total E_XC with PAW   =    -230.23596370 Ry

     total magnetization       =     2.54 Bohr mag/cell
     absolute magnetization    =     2.89 Bohr mag/cell

     convergence has been achieved in   4 iterations

     Writing all to output data dir out/Ni.save/

     General routines

     Parallel routines

     PAW routines

   This run was terminated on:   0:34:31  22Mar2024

   JOB DONE.