     Program PWSCF v.7.2 starts on  5Jul2024 at 12: 7:23

     Reading input from 2.Fe_in_ZnS.scf.qp1.in

     Current dimensions of program PWSCF are:
     Max number of different atomic species (ntypx) = 10
     Max number of k-points (npk) =  40000
     Max angular momentum in pseudopotentials (lmaxx) =  4
     file S.pbe-n-kjpaw_psl.1.0.0.UPF: wavefunction(s)  3S 3P renormalized
     file Zn.pbe-dnl-kjpaw_psl.1.0.0.UPF: wavefunction(s)  4S 3D renormalized
     file Fe.pbe-spn-kjpaw_psl.1.0.0.UPF: wavefunction(s)  3P 3D renormalized

     K-points division:     npool     =      10
     R & G space division:  proc/nbgrp/npool/nimage =     112
     Subspace diagonalization in iterative solution of the eigenvalue problem:
     one sub-group per band group will be used

     Using Slab Decomposition

     bravais-lattice index     =            1
     lattice parameter (alat)  =      20.5686  a.u.
     unit-cell volume          =    8701.8437 (a.u.)^3
     number of atoms/cell      =           64
     number of atomic types    =            3
     number of electrons       =       579.00
     number of Kohn-Sham states=          348
     kinetic-energy cutoff     =     150.0000  Ry
     charge density cutoff     =     600.0000  Ry
     scf convergence threshold =      1.0E-08
     mixing beta               =       0.7000
     number of iterations used =            8  plain     mixing
     Exchange-correlation= SLA  PW   PBX  PBC
                           (   1   4   3   4   0   0   0)

     celldm(1)=  20.568554  celldm(2)=   0.000000  celldm(3)=   0.000000
     celldm(4)=   0.000000  celldm(5)=   0.000000  celldm(6)=   0.000000

     crystal axes: (cart. coord. in units of alat)
               a(1) = (   1.000000   0.000000   0.000000 )
               a(2) = (   0.000000   1.000000   0.000000 )
               a(3) = (   0.000000   0.000000   1.000000 )

     reciprocal axes: (cart. coord. in units 2 pi/alat)
               b(1) = (  1.000000  0.000000  0.000000 )
               b(2) = (  0.000000  1.000000  0.000000 )
               b(3) = (  0.000000  0.000000  1.000000 )

     PseudoPot. # 1 for S  read from file:
     /arf/home/amuhaymin/pseudo/S.pbe-n-kjpaw_psl.1.0.0.UPF
     MD5 check sum: fb45dfebcf3e72a4e1bd4a866ec2e262
     Pseudo is Projector augmented-wave + core cor, Zval =  6.0
     Generated using &quot;atomic&quot; code by A. Dal Corso  v.6.3
     Shape of augmentation charge: PSQ
     Using radial grid of 1151 points,  6 beta functions with:
                l(1) =   0
                l(2) =   0
                l(3) =   1
                l(4) =   1
                l(5) =   2
                l(6) =   2
     Q(r) pseudized with 0 coefficients

     PseudoPot. # 2 for Zn read from file:
     /arf/home/amuhaymin/pseudo/Zn.pbe-dnl-kjpaw_psl.1.0.0.UPF
     MD5 check sum: c608214d9520ac179f507641260889e3
     Pseudo is Projector augmented-wave + core cor, Zval = 12.0
     Generated using &quot;atomic&quot; code by A. Dal Corso  v.6.2.2
     Shape of augmentation charge: PSQ
     Using radial grid of 1201 points,  6 beta functions with:
                l(1) =   0
                l(2) =   0
                l(3) =   1
                l(4) =   1
                l(5) =   2
                l(6) =   2
     Q(r) pseudized with 0 coefficients

     PseudoPot. # 3 for Fe read from file:
     /arf/home/amuhaymin/pseudo/Fe.pbe-spn-kjpaw_psl.1.0.0.UPF
     MD5 check sum: fc81f059e5c5069939230b1155715ae8
     Pseudo is Projector augmented-wave + core cor, Zval = 16.0
     Generated using &quot;atomic&quot; code by A. Dal Corso  v.6.3
     Shape of augmentation charge: PSQ
     Using radial grid of 1191 points,  6 beta functions with:
                l(1) =   0
                l(2) =   0
                l(3) =   1
                l(4) =   1
                l(5) =   2
                l(6) =   2
     Q(r) pseudized with 0 coefficients

     atomic species   valence    mass     pseudopotential
        S              6.00    32.06500     S ( 1.00)
        Zn            12.00    65.38000     Zn( 1.00)
        Fe            16.00    63.54600     Fe( 1.00)

     Starting magnetic structure
     atomic species   magnetization
        S            0.000
        Zn           0.000
        Fe           0.312

     24 Sym. Ops. (no inversion) found

                                    s                        frac. trans.

      isym =  1     identity

 cryst.   s( 1) = (     1          0          0      )
                  (     0          1          0      )
                  (     0          0          1      )

 cart.    s( 1) = (  1.0000000  0.0000000  0.0000000 )
                  (  0.0000000  1.0000000  0.0000000 )
                  (  0.0000000  0.0000000  1.0000000 )

      isym =  2     180 deg rotation - cart. axis [0,0,1]

[...]

 cryst.   s( 9) = (     0          1          0      )
                  (     0          0          1      )
                  (     1          0          0      )

 cart.    s( 9) = (  0.0000000  0.0000000  1.0000000 )
                  (  1.0000000  0.0000000  0.0000000 )
                  (  0.0000000  1.0000000  0.0000000 )

[...]

 cryst.   s(10) = (     0         -1          0      )
                  (     0          0         -1      )
                  (     1          0          0      )

 cart.    s(10) = (  0.0000000  0.0000000  1.0000000 )
                  ( -1.0000000  0.0000000  0.0000000 )
                  (  0.0000000 -1.0000000  0.0000000 )

[...]

      isym = 12     120 deg rotation - cart. axis [-1,-1,1]

[...]

      isym = 13     inv. 180 deg rotation - cart. axis [1,1,0]

[...]

      isym = 24     inv.  90 deg rotation - cart. axis [1,0,0]

 cryst.   s(24) = (    -1          0          0      )
                  (     0          0         -1      )
                  (     0          1          0      )

 cart.    s(24) = ( -1.0000000  0.0000000  0.0000000 )
                  (  0.0000000  0.0000000  1.0000000 )
                  (  0.0000000 -1.0000000  0.0000000 )

     point group T_d (-43m)
     there are  5 classes
     the character table:

       E     8C3   3C2   6S4   6s_d
A_1    1.00  1.00  1.00  1.00  1.00
A_2    1.00  1.00  1.00 -1.00 -1.00
E      2.00 -1.00  2.00  0.00  0.00
T_1    3.00  0.00 -1.00  1.00 -1.00
T_2    3.00  0.00 -1.00 -1.00  1.00

     the symmetry operations in each class and the name of the first element:

     E        1
          identity
     8C3      5    7    8    6   12    9   10   11
          120 deg rotation - cart. axis [-1,-1,-1]
     3C2      2    3    4
          180 deg rotation - cart. axis [0,0,1]
     6S4     15   16   20   19   23   24
          inv.  90 deg rotation - cart. axis [0,0,-1]
     6s_d    13   14   17   18   21   22
          inv. 180 deg rotation - cart. axis [1,1,0]

   Cartesian axes

     site n.     atom                  positions (alat units)
         1           Zn  tau(   1) = (   0.0000000   0.0000000   0.0000000  )
         2           Zn  tau(   2) = (   0.0000457   0.2496913   0.2496913  )
         3           Zn  tau(   3) = (   0.2496913   0.0000457   0.2496913  )
         4           Zn  tau(   4) = (   0.2496913   0.2496913   0.0000457  )
         5           S   tau(   5) = (   0.1248460   0.3752236   0.3752236  )
         6           S   tau(   6) = (   0.1250286   0.1250286   0.1250286  )
         7           S   tau(   7) = (   0.3752236   0.3752236   0.1248460  )
         8           S   tau(   8) = (   0.3752236   0.1248460   0.3752236  )
         9           Zn  tau(   9) = (   0.0000000   0.0000000   0.5000000  )
        10           Zn  tau(  10) = (  -0.0000457   0.2496913   0.7503087  )
        11           Zn  tau(  11) = (   0.2496913  -0.0000457   0.7503087  )
        12           Zn  tau(  12) = (   0.2485430   0.2485430   0.4978290  )
        13           S   tau(  13) = (   0.1254710   0.3749914   0.8745290  )
        14           S   tau(  14) = (   0.1254710   0.1254710   0.6250086  )
        15           S   tau(  15) = (   0.3779086   0.3779086   0.6220914  )
        16           S   tau(  16) = (   0.3749914   0.1254710   0.8745290  )
        17           Zn  tau(  17) = (   0.0000000   0.5000000   0.0000000  )
        18           Zn  tau(  18) = (  -0.0000457   0.7503087   0.2496913  )
        19           Zn  tau(  19) = (   0.2485430   0.4978290   0.2485430  )
        20           Zn  tau(  20) = (   0.2496913   0.7503087  -0.0000457  )
        21           S   tau(  21) = (   0.1254710   0.8745290   0.3749914  )
        22           S   tau(  22) = (   0.1254710   0.6250086   0.1254710  )
        23           S   tau(  23) = (   0.3749914   0.8745290   0.1254710  )
        24           S   tau(  24) = (   0.3779086   0.6220914   0.3779086  )
        25           Zn  tau(  25) = (   0.0000000   0.5000000   0.5000000  )
        26           Zn  tau(  26) = (   0.0000457   0.7503087   0.7503087  )
        27           Zn  tau(  27) = (   0.2485430   0.5021710   0.7514570  )
        28           Zn  tau(  28) = (   0.2485430   0.7514570   0.5021710  )
        29           S   tau(  29) = (   0.1250286   0.8749714   0.8749714  )
        30           S   tau(  30) = (   0.1248460   0.6247764   0.6247764  )
        31           S   tau(  31) = (   0.3752236   0.8751540   0.6247764  )
        32           S   tau(  32) = (   0.3752236   0.6247764   0.8751540  )
        33           Zn  tau(  33) = (   0.5000000   0.0000000   0.0000000  )
        34           Zn  tau(  34) = (   0.4978290   0.2485430   0.2485430  )
        35           Zn  tau(  35) = (   0.7503087  -0.0000457   0.2496913  )
        36           Zn  tau(  36) = (   0.7503087   0.2496913  -0.0000457  )
        37           S   tau(  37) = (   0.6220914   0.3779086   0.3779086  )
        38           S   tau(  38) = (   0.6250086   0.1254710   0.1254710  )
        39           S   tau(  39) = (   0.8745290   0.3749914   0.1254710  )
        40           S   tau(  40) = (   0.8745290   0.1254710   0.3749914  )
        41           Zn  tau(  41) = (   0.5000000   0.0000000   0.5000000  )
        42           Zn  tau(  42) = (   0.5021710   0.2485430   0.7514570  )
        43           Zn  tau(  43) = (   0.7503087   0.0000457   0.7503087  )
        44           Zn  tau(  44) = (   0.7514570   0.2485430   0.5021710  )
        45           S   tau(  45) = (   0.6247764   0.3752236   0.8751540  )
        46           S   tau(  46) = (   0.6247764   0.1248460   0.6247764  )
        47           S   tau(  47) = (   0.8751540   0.3752236   0.6247764  )
        48           S   tau(  48) = (   0.8749714   0.1250286   0.8749714  )
        49           Zn  tau(  49) = (   0.5000000   0.5000000   0.0000000  )
        50           Zn  tau(  50) = (   0.5021710   0.7514570   0.2485430  )
        51           Zn  tau(  51) = (   0.7514570   0.5021710   0.2485430  )
        52           Zn  tau(  52) = (   0.7503087   0.7503087   0.0000457  )
        53           S   tau(  53) = (   0.6247764   0.8751540   0.3752236  )
        54           S   tau(  54) = (   0.6247764   0.6247764   0.1248460  )
        55           S   tau(  55) = (   0.8749714   0.8749714   0.1250286  )
[...]
     atom  30 (R=0.087)  charge=  3.8292  magn=  0.0042
     atom  31 (R=0.087)  charge=  3.8292  magn=  0.0042
     atom  32 (R=0.087)  charge=  3.8292  magn=  0.0042
     atom  33 (R=0.089)  charge= 10.1293  magn=  0.0026
     atom  34 (R=0.089)  charge= 10.1309  magn=  0.0083
     atom  35 (R=0.089)  charge= 10.1333  magn=  0.0008
     atom  36 (R=0.089)  charge= 10.1333  magn=  0.0008
     atom  37 (R=0.087)  charge=  3.8156  magn=  0.1217
     atom  38 (R=0.087)  charge=  3.8252  magn=  0.0096
     atom  39 (R=0.087)  charge=  3.8252  magn=  0.0096
     atom  40 (R=0.087)  charge=  3.8252  magn=  0.0096
     atom  41 (R=0.089)  charge= 10.1362  magn=  0.0002
     atom  42 (R=0.089)  charge= 10.1309  magn=  0.0083
     atom  43 (R=0.089)  charge= 10.1333  magn=  0.0008
     atom  44 (R=0.089)  charge= 10.1309  magn=  0.0083
     atom  45 (R=0.087)  charge=  3.8292  magn=  0.0042
     atom  46 (R=0.087)  charge=  3.8292  magn=  0.0042
     atom  47 (R=0.087)  charge=  3.8292  magn=  0.0042
     atom  48 (R=0.087)  charge=  3.8276  magn=  0.0015
     atom  49 (R=0.089)  charge= 10.1362  magn=  0.0002
     atom  50 (R=0.089)  charge= 10.1309  magn=  0.0083
     atom  51 (R=0.089)  charge= 10.1309  magn=  0.0083
     atom  52 (R=0.089)  charge= 10.1333  magn=  0.0008
     atom  53 (R=0.087)  charge=  3.8292  magn=  0.0042
     atom  54 (R=0.087)  charge=  3.8292  magn=  0.0042
     atom  55 (R=0.087)  charge=  3.8276  magn=  0.0015
     atom  56 (R=0.087)  charge=  3.8292  magn=  0.0042
     atom  57 (R=0.087)  charge= 13.8068  magn=  3.4626
     atom  58 (R=0.089)  charge= 10.1309  magn=  0.0083
     atom  59 (R=0.089)  charge= 10.1309  magn=  0.0083
     atom  60 (R=0.089)  charge= 10.1309  magn=  0.0083
     atom  61 (R=0.087)  charge=  3.8252  magn=  0.0096
     atom  62 (R=0.087)  charge=  3.8156  magn=  0.1217
     atom  63 (R=0.087)  charge=  3.8252  magn=  0.0096
     atom  64 (R=0.087)  charge=  3.8252  magn=  0.0096

     End of self-consistent calculation

 ------ SPIN UP ------------

          k = 0.0000 0.0000 0.0000 (269825 PWs)   bands (ev):

   -84.3155 -50.3318 -50.3318 -50.3318  -7.4554  -6.9888  -6.9247  -6.9247
    -6.9247  -6.8790  -6.8790  -6.6774  -6.6774  -6.6774  -6.6369  -6.5593
    -6.5593  -6.5593  -6.5585  -6.5585  -6.5585  -6.5534  -6.5534  -6.5143
    -6.5143  -6.5143  -6.5100  -6.3023  -6.3023  -6.3023  -6.2286  -6.2286
    -6.2286  -6.2068  -6.2068  -6.2068  -0.6863  -0.6826  -0.6826  -0.6671
    -0.6671  -0.6671  -0.6491  -0.6415  -0.6415  -0.6300  -0.6300  -0.6300
    -0.5514  -0.5514  -0.5514  -0.5483  -0.5483  -0.5483  -0.5457  -0.5457
    -0.5444  -0.5444  -0.5444  -0.5302  -0.5128  -0.5128  -0.5128  -0.5107
    -0.5107  -0.5107  -0.5077  -0.5048  -0.5048  -0.5048  -0.5046  -0.5046
    -0.4962  -0.4962  -0.4962  -0.4928  -0.4928  -0.4928  -0.4732  -0.4732
    -0.4665  -0.4665  -0.4665  -0.4611  -0.4599  -0.4599  -0.4599  -0.4590
    -0.4590  -0.4500  -0.4500  -0.4500  -0.4488  -0.4488  -0.4488  -0.4277
    -0.4277  -0.4277  -0.3692  -0.3692  -0.3692  -0.3603  -0.3603  -0.3603
    -0.3482  -0.3439  -0.3439  -0.3437  -0.3437  -0.3437  -0.3291  -0.3291
    -0.3291  -0.3010  -0.3010  -0.3010  -0.2897  -0.2897  -0.2897  -0.2475
    -0.2475  -0.2475  -0.2431  -0.2431  -0.2431  -0.2286  -0.2286  -0.1978
    -0.1978  -0.1978  -0.1944  -0.1904  -0.1863  -0.1863  -0.1863  -0.1845
    -0.1845  -0.1735  -0.1735  -0.1735  -0.1693  -0.1675  -0.1675  -0.1675
    -0.1473  -0.1473  -0.1394  -0.1309  -0.1309  -0.1309  -0.1308  -0.1308
    -0.1196  -0.1173  -0.1173  -0.1173  -0.1140  -0.1140  -0.0973  -0.0973
    -0.0973  -0.0958  -0.0958  -0.0958  -0.0938  -0.0938  -0.0853  -0.0659
    -0.0659  -0.0659  -0.0644  -0.0644  -0.0644  -0.0610  -0.0610  -0.0528
    -0.0424  -0.0424  -0.0089  -0.0089  -0.0089   0.0508   0.0656   0.0656
     0.0656   0.1955   0.1955   0.1955   0.2379   0.2379   0.2379   0.4188
     0.4188   0.4188   0.4563   0.9549   0.9549   1.0932   1.0932   1.0932
     1.1056   1.1401   1.1401   1.1546   1.1546   1.1546   1.1630   1.6963
     1.6963   1.6963   1.7071   1.7071   1.7101   1.7101   1.7101   1.7676
     1.8197   1.8197   1.9979   1.9979   1.9979   2.9045   2.9045   2.9045
     2.9359   2.9359   2.9359   2.9521   2.9606   2.9606   2.9606   3.0189
     3.0189   3.0720   3.0935   3.0935   3.1073   3.1073   3.1073   3.1385
     3.1385   3.1385   3.1553   3.1553   3.1553   3.1613   3.2808   3.2808
     3.2891   3.2891   3.2891   3.4203   3.4203   3.4203   3.4852   3.4852
     3.4852   4.3644   4.3644   4.3644   4.3804   4.3804   4.3804   4.3946
     4.3946   4.3946   4.4817   4.4817   4.4817   4.6559   4.6559   4.6559
     4.7158   4.7203   4.7203   4.7203   4.7253   4.7253   4.7602   4.7602
     4.7602   4.7630   4.7630   4.7691   4.7691   4.7691   4.8929   4.8929
     4.8929   5.6209   5.6209   5.6209   7.6117   8.8369   8.8369   8.8369
     8.9347   9.0610   9.0610   9.0610   9.6435   9.6435   9.7088  10.0051
    10.0051  10.0051  10.0152  10.0152  10.0182  10.1639  10.1639  10.1677
    10.1677  10.1677  10.1954  10.3254  10.3254  10.3254  10.3405  10.3405
    10.3405  10.3519  10.3519  10.3519  10.3606  10.3606  10.7969  11.2592
    11.2592  11.2592  11.3199  11.3199  11.3199  11.4783  11.4783  11.4783
    11.4950  11.4950  11.8991  11.9769  11.9769  11.9769  12.1965  12.1965
    12.1966  12.2216  12.2258  12.2258

     occupation numbers
     1.0000   1.0000   1.0000   1.0000   1.0000   1.0000   1.0000   1.0000
     1.0000   1.0000   1.0000   1.0000   1.0000   1.0000   1.0000   1.0000
     1.0000   1.0000   1.0000   1.0000   1.0000   1.0000   1.0000   1.0000
     1.0000   1.0000   1.0000   1.0000   1.0000   1.0000   1.0000   1.0000
     1.0000   1.0000   1.0000   1.0000   1.0000   1.0000   1.0000   1.0000
     1.0000   1.0000   1.0000   1.0000   1.0000   1.0000   1.0000   1.0000
     1.0000   1.0000   1.0000   1.0000   1.0000   1.0000   1.0000   1.0000
     1.0000   1.0000   1.0000   1.0000   1.0000   1.0000   1.0000   1.0000
     1.0000   1.0000   1.0000   1.0000   1.0000   1.0000   1.0000   1.0000
     1.0000   1.0000   1.0000   1.0000   1.0000   1.0000   1.0000   1.0000
     1.0000   1.0000   1.0000   1.0000   1.0000   1.0000   1.0000   1.0000
     1.0000   1.0000   1.0000   1.0000   1.0000   1.0000   1.0000   1.0000
     1.0000   1.0000   1.0000   1.0000   1.0000   1.0000   1.0000   1.0000
     1.0000   1.0000   1.0000   1.0000   1.0000   1.0000   1.0000   1.0000
     1.0000   1.0000   1.0000   1.0000   1.0000   1.0000   1.0000   1.0000
     1.0000   1.0000   1.0000   1.0000   1.0000   1.0000   1.0000   1.0000
     1.0000   1.0000   1.0000   1.0000   1.0000   1.0000   1.0000   1.0000
     1.0000   1.0000   1.0000   1.0000   1.0000   1.0000   1.0000   1.0000
     1.0000   1.0000   1.0000   1.0000   1.0000   1.0000   1.0000   1.0000
     1.0000   1.0000   1.0000   1.0000   1.0000   1.0000   1.0000   1.0000
     1.0000   1.0000   1.0000   1.0000   1.0000   1.0000   1.0000   1.0000
     1.0000   1.0000   1.0000   1.0000   1.0000   1.0000   1.0000   1.0000
     1.0000   1.0000   1.0000   1.0000   1.0000   1.0000   1.0000   1.0000
     1.0000   1.0000   1.0000   1.0000   1.0000   1.0000   1.0000   1.0000
     1.0000   1.0000   1.0000   1.0000   1.0000   1.0000   1.0000   1.0000
     1.0000   1.0000   1.0000   1.0000   1.0000   1.0000   1.0000   1.0000
     1.0000   1.0000   1.0000   1.0000   1.0000   1.0000   1.0000   1.0000
     1.0000   1.0000   1.0000   1.0000   1.0000   1.0000   1.0000   1.0000
     1.0000   1.0000   1.0000   1.0000   1.0000   1.0000   1.0000   1.0000
     1.0000   1.0000   1.0000   1.0000   1.0000   1.0000   1.0000   1.0000
     1.0000   1.0000   1.0000   1.0000   1.0000   1.0000   1.0000   1.0000
     1.0000   1.0000   1.0000   1.0000   1.0000   1.0000   1.0000   1.0000
     1.0000   1.0000   1.0000   1.0000   1.0000   1.0000   1.0000   1.0000
     1.0000   1.0000   1.0000   1.0000   1.0000   1.0000   1.0000   1.0000
     1.0000   1.0000   1.0000   1.0000   1.0000   1.0000   1.0000   1.0000
     1.0000   1.0000   1.0000   1.0000   1.0000   1.0000   1.0000   1.0000
     1.0000   1.0000   1.0000   1.0000   0.0000   0.0000   0.0000   0.0000
     0.0000   0.0000   0.0000   0.0000   0.0000   0.0000   0.0000   0.0000
     0.0000   0.0000   0.0000   0.0000   0.0000   0.0000   0.0000   0.0000
     0.0000   0.0000   0.0000   0.0000   0.0000   0.0000   0.0000   0.0000
     0.0000   0.0000   0.0000   0.0000   0.0000   0.0000   0.0000   0.0000
     0.0000   0.0000   0.0000   0.0000   0.0000   0.0000   0.0000   0.0000
     0.0000   0.0000   0.0000   0.0000   0.0000   0.0000   0.0000   0.0000
     0.0000   0.0000   0.0000   0.0000

[...]

          k =-0.5000-0.5000-0.5000 (269968 PWs)   bands (ev):

[...]

 ------ SPIN DOWN ----------

[...]

          k = 0.2500-0.5000-0.5000 (269956 PWs)   bands (ev):

[...]

          k =-0.5000-0.5000-0.5000 (269968 PWs)   bands (ev):

   -80.2307 -46.3394 -46.3394 -46.3394  -7.0502  -7.0187  -7.0187  -7.0187
    -6.9914  -6.9914  -6.9914  -6.9690  -6.4382  -6.4382  -6.4382  -6.4265
    -6.4025  -6.4025  -6.4016  -6.4016  -6.4016  -6.3949  -6.3949  -6.3949
    -6.3752  -6.3752  -6.3752  -6.3707  -6.3707  -6.3707  -6.3682  -6.3682
    -6.3596  -6.3432  -6.3432  -6.3432  -0.6020  -0.6020  -0.6020  -0.5968
    -0.5968  -0.5968  -0.5923  -0.5878  -0.5878  -0.5780  -0.5780  -0.5780
    -0.5686  -0.5686  -0.5686  -0.5670  -0.5670  -0.5670  -0.5622  -0.5615
    -0.5615  -0.5575  -0.5575  -0.5575  -0.5488  -0.5488  -0.5488  -0.5412
    -0.5412  -0.5412  -0.5369  -0.5298  -0.5298  -0.5298  -0.5251  -0.5251
    -0.5251  -0.5134  -0.5134  -0.5134  -0.5086  -0.5058  -0.5058  -0.4989
    -0.4989  -0.4925  -0.4925  -0.4925  -0.4670  -0.4259  -0.4259  -0.4259
    -0.4206  -0.4206  -0.4206  -0.4147  -0.4147  -0.3942  -0.3942  -0.3942
    -0.3916  -0.3916  -0.3857  -0.3857  -0.3857  -0.3778  -0.3778  -0.3778
    -0.3764  -0.3531  -0.3531  -0.3531  -0.3094  -0.3070  -0.3070  -0.3070
    -0.2984  -0.2984  -0.2984  -0.2882  -0.2882  -0.2882  -0.2873  -0.2873
    -0.2823  -0.2823  -0.2823  -0.2653  -0.2653  -0.2583  -0.2583  -0.2583
    -0.2522  -0.1863  -0.1863  -0.1863  -0.1805  -0.1805  -0.1805  -0.1801
    -0.1801  -0.1511  -0.1499  -0.1499  -0.1499  -0.1454  -0.1454  -0.1454
    -0.1323  -0.1323  -0.1323  -0.1187  -0.1187  -0.1187  -0.0951  -0.0951
    -0.0924  -0.0924  -0.0924  -0.0887  -0.0887  -0.0887  -0.0823  -0.0823
    -0.0823  -0.0805  -0.0805  -0.0805  -0.0671  -0.0671  -0.0671  -0.0663
    -0.0500  -0.0500  -0.0093   0.0002   0.0002   0.0121   0.0121   0.0121
     0.0129   0.0129   0.0129   0.0296   0.0296   0.0296   0.0332   0.0332
     0.0332   0.0368   0.0368   0.0514   0.0586   0.0586   0.0586   1.0844
     1.0844   1.0844   1.1653   1.1653   1.2070   1.2070   1.2070   1.2125
     1.2125   1.2125   1.2159   1.2159   1.2159   1.2242   1.2242   1.2409
     1.2409   1.2409   1.2469   1.2469   1.2469   1.2564   1.5130   2.5490
     2.5490   2.5490   2.8183   2.8188   2.8188   2.8188   2.8925   2.9989
     2.9989   3.0859   3.0859   3.0859   3.2541   3.2541   3.2541   3.2581
     3.2581   3.2581   3.2790   3.2790   3.2790   3.2817   3.2846   3.2846
     3.2984   3.2984   3.2984   3.3035   3.3035   3.3035   3.3459   3.7601
     3.7601   3.7601   3.9694   3.9694   4.0031   4.0234   4.0234   4.0234
     4.0546   4.0546   4.0546   4.0650   4.0650   4.0650   4.0678   4.0678
     4.0678   4.0710   4.0710   4.0710   4.0745   4.0745   4.0899   4.6892
     4.6892   4.6892   5.0362   5.0362   5.1352   5.1352   5.1352   5.1458
     5.1458   5.1523   5.1523   5.1523   5.1578   5.1578   5.1578   6.1024
     6.1024   6.6939   6.6939   6.6939   8.9965   8.9965   8.9965   9.0006
     9.0038   9.0038   9.0038   9.1469   9.8883   9.8883   9.8883   9.9032
     9.9032   9.9032   9.9089   9.9308   9.9308   9.9308   9.9369   9.9369
     9.9369   9.9446   9.9446   9.9520   9.9520   9.9520   9.9781   9.9781
    10.0241  10.0241  10.0241  10.4385  11.4082  11.4082  11.4082  11.4927
    11.4927  11.4927  11.5010  11.5010  11.5223  11.5223  11.5223  11.5276
    11.5384  11.5384  11.5384  11.5464  11.5464  11.5464  11.5652  11.5652
    11.6582  11.6583  11.6583  12.2796

     occupation numbers
     1.0000   1.0000   1.0000   1.0000   1.0000   1.0000   1.0000   1.0000
     1.0000   1.0000   1.0000   1.0000   1.0000   1.0000   1.0000   1.0000
     1.0000   1.0000   1.0000   1.0000   1.0000   1.0000   1.0000   1.0000
     1.0000   1.0000   1.0000   1.0000   1.0000   1.0000   1.0000   1.0000
     1.0000   1.0000   1.0000   1.0000   1.0000   1.0000   1.0000   1.0000
     1.0000   1.0000   1.0000   1.0000   1.0000   1.0000   1.0000   1.0000
     1.0000   1.0000   1.0000   1.0000   1.0000   1.0000   1.0000   1.0000
     1.0000   1.0000   1.0000   1.0000   1.0000   1.0000   1.0000   1.0000
     1.0000   1.0000   1.0000   1.0000   1.0000   1.0000   1.0000   1.0000
     1.0000   1.0000   1.0000   1.0000   1.0000   1.0000   1.0000   1.0000
     1.0000   1.0000   1.0000   1.0000   1.0000   1.0000   1.0000   1.0000
     1.0000   1.0000   1.0000   1.0000   1.0000   1.0000   1.0000   1.0000
     1.0000   1.0000   1.0000   1.0000   1.0000   1.0000   1.0000   1.0000
     1.0000   1.0000   1.0000   1.0000   1.0000   1.0000   1.0000   1.0000
     1.0000   1.0000   1.0000   1.0000   1.0000   1.0000   1.0000   1.0000
     1.0000   1.0000   1.0000   1.0000   1.0000   1.0000   1.0000   1.0000
     1.0000   1.0000   1.0000   1.0000   1.0000   1.0000   1.0000   1.0000
     1.0000   1.0000   1.0000   1.0000   1.0000   1.0000   1.0000   1.0000
     1.0000   1.0000   1.0000   1.0000   1.0000   1.0000   1.0000   1.0000
     1.0000   1.0000   1.0000   1.0000   1.0000   1.0000   1.0000   1.0000
     1.0000   1.0000   1.0000   1.0000   1.0000   1.0000   1.0000   1.0000
     1.0000   1.0000   1.0000   1.0000   1.0000   1.0000   1.0000   1.0000
     1.0000   1.0000   1.0000   1.0000   1.0000   1.0000   1.0000   1.0000
     1.0000   1.0000   1.0000   1.0000   1.0000   1.0000   1.0000   1.0000
     1.0000   1.0000   1.0000   1.0000   1.0000   1.0000   1.0000   1.0000
     1.0000   1.0000   1.0000   1.0000   1.0000   1.0000   1.0000   1.0000
     1.0000   1.0000   1.0000   1.0000   1.0000   1.0000   1.0000   1.0000
     1.0000   1.0000   1.0000   1.0000   1.0000   1.0000   1.0000   1.0000
     1.0000   1.0000   1.0000   1.0000   1.0000   1.0000   1.0000   1.0000
     1.0000   1.0000   1.0000   1.0000   1.0000   1.0000   1.0000   1.0000
     1.0000   1.0000   1.0000   1.0000   1.0000   1.0000   1.0000   1.0000
     1.0000   1.0000   1.0000   1.0000   1.0000   1.0000   1.0000   1.0000
     1.0000   1.0000   1.0000   1.0000   1.0000   1.0000   1.0000   1.0000
     1.0000   1.0000   1.0000   1.0000   1.0000   1.0000   1.0000   1.0000
     1.0000   1.0000   1.0000   1.0000   1.0000   1.0000   1.0000   1.0000
     1.0000   1.0000   1.0000   1.0000   1.0000   1.0000   1.0000   0.0000
     0.0000   0.0000   0.0000   0.0000   0.0000   0.0000   0.0000   0.0000
     0.0000   0.0000   0.0000   0.0000   0.0000   0.0000   0.0000   0.0000
     0.0000   0.0000   0.0000   0.0000   0.0000   0.0000   0.0000   0.0000
     0.0000   0.0000   0.0000   0.0000   0.0000   0.0000   0.0000   0.0000
     0.0000   0.0000   0.0000   0.0000   0.0000   0.0000   0.0000   0.0000
     0.0000   0.0000   0.0000   0.0000   0.0000   0.0000   0.0000   0.0000
     0.0000   0.0000   0.0000   0.0000   0.0000   0.0000   0.0000   0.0000
     0.0000   0.0000   0.0000   0.0000

     the Fermi energy is     5.9831 ev

!    total energy              =  -10010.28738141 Ry
     total all-electron energy =   -139454.127480 Ry
     estimated scf accuracy    <          4.3E-09 Ry
     smearing contrib. (-TS)   =      -0.00000000 Ry
     internal energy E=F+TS    =  -10010.28738141 Ry

     The total energy is F=E-TS. E is the sum of the following terms:
     one-electron contribution =   -2870.18825270 Ry
     hartree contribution      =    2006.67672823 Ry
     xc contribution           =   -1654.39119973 Ry
     ewald contribution        =   -2975.35083709 Ry
     one-center paw contrib.   =   -4517.03382012 Ry
      -> PAW hartree energy AE =     123.14853703 Ry
      -> PAW hartree energy PS =    -122.50627962 Ry
      -> PAW xc energy AE      =    -143.19928058 Ry
      -> PAW xc energy PS      =      47.13808118 Ry
      -> total E_H with PAW    =    2007.31898564 Ry
      -> total E_XC with PAW   =   -1750.45239913 Ry

     total magnetization       =     5.00 Bohr mag/cell
     absolute magnetization    =     5.03 Bohr mag/cell

     convergence has been achieved in  16 iterations

     Writing all to output data dir ./out/Fe_qp1.save/

     General routines

     Parallel routines

     PAW routines

   This run was terminated on:  12:11:29   5Jul2024

   JOB DONE.