     Program PWSCF v.7.2 starts on 18Jul2024 at  3:19:11

     Reading input from 1.Cu_vac_in_ZnS.scf.q0.unrlxd.U8.in

     Current dimensions of program PWSCF are:
     Max number of different atomic species (ntypx) = 10
     Max number of k-points (npk) =  40000
     Max angular momentum in pseudopotentials (lmaxx) =  4
     file S.pbe-n-kjpaw_psl.1.0.0.UPF: wavefunction(s)  3S 3P renormalized
     file Zn.pbe-dnl-kjpaw_psl.1.0.0.UPF: wavefunction(s)  4S 3D renormalized
     file Cu.pbe-spn-kjpaw_psl.1.0.0.UPF: wavefunction(s)  4S 3P 3D renormalized

     K-points division:     npool     =      13
     R & G space division:  proc/nbgrp/npool/nimage =     112
     Subspace diagonalization in iterative solution of the eigenvalue problem:
     one sub-group per band group will be used

     Using Slab Decomposition

     bravais-lattice index     =            1
     lattice parameter (alat)  =      20.5686  a.u.
     unit-cell volume          =    8701.8437 (a.u.)^3
     number of atoms/cell      =           63
     number of atomic types    =            3
     number of electrons       =       577.00
     number of Kohn-Sham states=          347
     kinetic-energy cutoff     =     150.0000  Ry
     charge density cutoff     =     600.0000  Ry
     scf convergence threshold =      1.0E-08
     mixing beta               =       0.7000
     number of iterations used =            8  plain     mixing
     Exchange-correlation= SLA  PW   PBX  PBC
                           (   1   4   3   4   0   0   0)
     Hubbard projectors: ortho-atomic
     Hubbard parameters of DFT+U (Dudarev formulation) in eV:
     U(Zn-3d) =  7.0000
     U(Cu-3d) =  8.0000

     Internal variables: lda_plus_u = T, lda_plus_u_kind = 0

     celldm(1)=  20.568554  celldm(2)=   0.000000  celldm(3)=   0.000000
     celldm(4)=   0.000000  celldm(5)=   0.000000  celldm(6)=   0.000000

     crystal axes: (cart. coord. in units of alat)
               a(1) = (   1.000000   0.000000   0.000000 )
               a(2) = (   0.000000   1.000000   0.000000 )
               a(3) = (   0.000000   0.000000   1.000000 )

     reciprocal axes: (cart. coord. in units 2 pi/alat)
               b(1) = (  1.000000  0.000000  0.000000 )
               b(2) = (  0.000000  1.000000  0.000000 )
               b(3) = (  0.000000  0.000000  1.000000 )

     PseudoPot. # 1 for S  read from file:
     /arf/home/amuhaymin/pseudo/S.pbe-n-kjpaw_psl.1.0.0.UPF
     MD5 check sum: fb45dfebcf3e72a4e1bd4a866ec2e262
     Pseudo is Projector augmented-wave + core cor, Zval =  6.0
     Generated using &quot;atomic&quot; code by A. Dal Corso  v.6.3
     Shape of augmentation charge: PSQ
     Using radial grid of 1151 points,  6 beta functions with:
                l(1) =   0
                l(2) =   0
                l(3) =   1
                l(4) =   1
                l(5) =   2
                l(6) =   2
     Q(r) pseudized with 0 coefficients

     PseudoPot. # 2 for Zn read from file:
     /arf/home/amuhaymin/pseudo/Zn.pbe-dnl-kjpaw_psl.1.0.0.UPF
     MD5 check sum: c608214d9520ac179f507641260889e3
     Pseudo is Projector augmented-wave + core cor, Zval = 12.0
     Generated using &quot;atomic&quot; code by A. Dal Corso  v.6.2.2
     Shape of augmentation charge: PSQ
     Using radial grid of 1201 points,  6 beta functions with:
                l(1) =   0
                l(2) =   0
                l(3) =   1
                l(4) =   1
                l(5) =   2
                l(6) =   2
     Q(r) pseudized with 0 coefficients

     PseudoPot. # 3 for Cu read from file:
     /arf/home/amuhaymin/pseudo/Cu.pbe-spn-kjpaw_psl.1.0.0.UPF
     MD5 check sum: e7cbaad2f97193e5fe23251a619a52b0
     Pseudo is Projector augmented-wave + core cor, Zval = 19.0
     Generated using &quot;atomic&quot; code by A. Dal Corso  v.6.3
     Shape of augmentation charge: PSQ
     Using radial grid of 1199 points,  6 beta functions with:
                l(1) =   0
                l(2) =   0
                l(3) =   1
                l(4) =   1
                l(5) =   2
                l(6) =   2
     Q(r) pseudized with 0 coefficients

     atomic species   valence    mass     pseudopotential
        S              6.00    32.06500     S ( 1.00)
        Zn            12.00    65.38000     Zn( 1.00)
        Cu            19.00    63.54600     Cu( 1.00)

     Starting magnetic structure
     atomic species   magnetization
        S            0.000
        Zn           0.000
        Cu           0.053

      6 Sym. Ops. (no inversion) found

                                    s                        frac. trans.

      isym =  1     identity

 cryst.   s( 1) = (     1          0          0      )
                  (     0          1          0      )
                  (     0          0          1      )

 cart.    s( 1) = (  1.0000000  0.0000000  0.0000000 )
                  (  0.0000000  1.0000000  0.0000000 )
                  (  0.0000000  0.0000000  1.0000000 )

      isym =  2     120 deg rotation - cart. axis [-1,-1,-1]

[...]

      isym =  3     120 deg rotation - cart. axis [1,1,1]

[...]

      isym =  4     inv. 180 deg rotation - cart. axis [1,-1,0]

[...]

      isym =  6     inv. 180 deg rotation - cart. axis [0,1,-1]

 cryst.   s( 6) = (     1          0          0      )
                  (     0          0          1      )
                  (     0          1          0      )

 cart.    s( 6) = (  1.0000000  0.0000000  0.0000000 )
                  (  0.0000000  0.0000000  1.0000000 )
                  (  0.0000000  1.0000000  0.0000000 )

     point group C_3v (3m)
     there are  3 classes
     the character table:

       E     2C3   3s_v
A_1    1.00  1.00  1.00
A_2    1.00  1.00 -1.00
E      2.00 -1.00  0.00

     the symmetry operations in each class and the name of the first element:

     E        1
          identity
     2C3      2    3
          120 deg rotation - cart. axis [-1,-1,-1]
     3s_v     4    5    6
          inv. 180 deg rotation - cart. axis [1,-1,0]

   Cartesian axes

     site n.     atom                  positions (alat units)
         1           Zn  tau(   1) = (   0.0000000   0.0000000   0.0000000  )
         2           Zn  tau(   2) = (   0.0000000   0.2500000   0.2500000  )
         3           Zn  tau(   3) = (   0.2500000   0.0000000   0.2500000  )
         4           Zn  tau(   4) = (   0.2500000   0.2500000   0.0000000  )
         5           S   tau(   5) = (   0.1250000   0.3750000   0.3750000  )
         6           S   tau(   6) = (   0.1250000   0.1250000   0.1250000  )
         7           S   tau(   7) = (   0.3750000   0.3750000   0.1250000  )
         8           S   tau(   8) = (   0.3750000   0.1250000   0.3750000  )
         9           Zn  tau(   9) = (   0.0000000   0.0000000   0.5000000  )
        10           Zn  tau(  10) = (   0.0000000   0.2500000   0.7500000  )
        11           Zn  tau(  11) = (   0.2500000   0.0000000   0.7500000  )
        12           Zn  tau(  12) = (   0.2500000   0.2500000   0.5000000  )
        13           S   tau(  13) = (   0.1250000   0.3750000   0.8750000  )
        14           S   tau(  14) = (   0.1250000   0.1250000   0.6250000  )
        15           S   tau(  15) = (   0.3750000   0.3750000   0.6250000  )
        16           S   tau(  16) = (   0.3750000   0.1250000   0.8750000  )
        17           Zn  tau(  17) = (   0.0000000   0.5000000   0.0000000  )
        18           Zn  tau(  18) = (   0.0000000   0.7500000   0.2500000  )
        19           Zn  tau(  19) = (   0.2500000   0.5000000   0.2500000  )
        20           Zn  tau(  20) = (   0.2500000   0.7500000   0.0000000  )
        21           S   tau(  21) = (   0.1250000   0.8750000   0.3750000  )
        22           S   tau(  22) = (   0.1250000   0.6250000   0.1250000  )
        23           S   tau(  23) = (   0.3750000   0.8750000   0.1250000  )
        24           S   tau(  24) = (   0.3750000   0.6250000   0.3750000  )
        25           Zn  tau(  25) = (   0.0000000   0.5000000   0.5000000  )
        26           Zn  tau(  26) = (   0.0000000   0.7500000   0.7500000  )
        27           Zn  tau(  27) = (   0.2500000   0.5000000   0.7500000  )
        28           Zn  tau(  28) = (   0.2500000   0.7500000   0.5000000  )
        29           S   tau(  29) = (   0.1250000   0.8750000   0.8750000  )
        30           S   tau(  30) = (   0.1250000   0.6250000   0.6250000  )
        31           S   tau(  31) = (   0.3750000   0.8750000   0.6250000  )
        32           S   tau(  32) = (   0.3750000   0.6250000   0.8750000  )
        33           Zn  tau(  33) = (   0.5000000   0.0000000   0.0000000  )
        34           Zn  tau(  34) = (   0.5000000   0.2500000   0.2500000  )
        35           Zn  tau(  35) = (   0.7500000   0.0000000   0.2500000  )
        36           Zn  tau(  36) = (   0.7500000   0.2500000   0.0000000  )
        37           S   tau(  37) = (   0.6250000   0.3750000   0.3750000  )
        38           S   tau(  38) = (   0.6250000   0.1250000   0.1250000  )
        39           S   tau(  39) = (   0.8750000   0.3750000   0.1250000  )
        40           S   tau(  40) = (   0.8750000   0.1250000   0.3750000  )
        41           Zn  tau(  41) = (   0.5000000   0.0000000   0.5000000  )
        42           Zn  tau(  42) = (   0.5000000   0.2500000   0.7500000  )
        43           Zn  tau(  43) = (   0.7500000   0.0000000   0.7500000  )
        44           Zn  tau(  44) = (   0.7500000   0.2500000   0.5000000  )
        45           S   tau(  45) = (   0.6250000   0.3750000   0.8750000  )
        46           S   tau(  46) = (   0.6250000   0.1250000   0.6250000  )
        47           S   tau(  47) = (   0.8750000   0.3750000   0.6250000  )
        48           S   tau(  48) = (   0.8750000   0.1250000   0.8750000  )
        49           Zn  tau(  49) = (   0.5000000   0.5000000   0.0000000  )
        50           Zn  tau(  50) = (   0.5000000   0.7500000   0.2500000  )
        51           Zn  tau(  51) = (   0.7500000   0.5000000   0.2500000  )
        52           Zn  tau(  52) = (   0.7500000   0.7500000   0.0000000  )
        53           S   tau(  53) = (   0.6250000   0.8750000   0.3750000  )
        54           S   tau(  54) = (   0.6250000   0.6250000   0.1250000  )
        55           S   tau(  55) = (   0.8750000   0.8750000   0.1250000  )
        56           S   tau(  56) = (   0.8750000   0.6250000   0.3750000  )
        57           Cu  tau(  57) = (   0.5000000   0.5000000   0.5000000  )
        58           Zn  tau(  58) = (   0.5000000   0.7500000   0.7500000  )
        59           Zn  tau(  59) = (   0.7500000   0.5000000   0.7500000  )
        60           Zn  tau(  60) = (   0.7500000   0.7500000   0.5000000  )
        61           S   tau(  61) = (   0.6250000   0.8750000   0.8750000  )
        62           S   tau(  62) = (   0.8750000   0.8750000   0.6250000  )
        63           S   tau(  63) = (   0.8750000   0.6250000   0.8750000  )

   Crystallographic axes

     site n.     atom                  positions (cryst. coord.)
         1           Zn  tau(   1) = (  0.0000000  0.0000000  0.0000000  )
[...]
     atom  30 (R=0.089)  charge=  3.9963  magn= -0.0001
     atom  31 (R=0.089)  charge=  3.9914  magn=  0.0132
     atom  32 (R=0.089)  charge=  3.9914  magn=  0.0132
     atom  33 (R=0.089)  charge= 10.1750  magn=  0.0023
     atom  34 (R=0.089)  charge= 10.1732  magn=  0.0011
     atom  35 (R=0.089)  charge= 10.1736  magn=  0.0019
     atom  36 (R=0.089)  charge= 10.1736  magn=  0.0019
     atom  37 (R=0.089)  charge=  3.9777  magn=  0.0062
     atom  38 (R=0.089)  charge=  3.9947  magn=  0.0075
     atom  39 (R=0.089)  charge=  3.9968  magn=  0.0008
     atom  40 (R=0.089)  charge=  3.9968  magn=  0.0008
     atom  41 (R=0.089)  charge= 10.1740  magn= -0.0001
     atom  42 (R=0.089)  charge= 10.1747  magn= -0.0000
     atom  43 (R=0.089)  charge= 10.1748  magn= -0.0001
     atom  44 (R=0.089)  charge= 10.1747  magn= -0.0000
     atom  45 (R=0.089)  charge=  3.9914  magn=  0.0132
     atom  46 (R=0.089)  charge=  3.9963  magn= -0.0001
     atom  47 (R=0.089)  charge=  3.9914  magn=  0.0132
     atom  48 (R=0.089)  charge=  3.9965  magn=  0.0010
     atom  49 (R=0.089)  charge= 10.1740  magn= -0.0001
     atom  50 (R=0.089)  charge= 10.1747  magn= -0.0000
     atom  51 (R=0.089)  charge= 10.1747  magn= -0.0000
     atom  52 (R=0.089)  charge= 10.1748  magn= -0.0001
     atom  53 (R=0.089)  charge=  3.9914  magn=  0.0132
     atom  54 (R=0.089)  charge=  3.9963  magn= -0.0001
     atom  55 (R=0.089)  charge=  3.9965  magn=  0.0010
     atom  56 (R=0.089)  charge=  3.9914  magn=  0.0132
     atom  57 (R=0.089)  charge= 17.4264  magn=  0.0088
     atom  58 (R=0.089)  charge= 10.1341  magn=  0.0335
     atom  59 (R=0.089)  charge= 10.1341  magn=  0.0335
     atom  60 (R=0.089)  charge= 10.1341  magn=  0.0335
     atom  61 (R=0.089)  charge=  3.9922  magn=  0.0183
     atom  62 (R=0.089)  charge=  3.9922  magn=  0.0183
     atom  63 (R=0.089)  charge=  3.9922  magn=  0.0183

     End of self-consistent calculation

 ------ SPIN UP ------------

          k = 0.0000 0.0000 0.0000 (269825 PWs)   bands (ev):

  -103.5921 -61.0739 -60.9931 -60.9931  -7.6073  -7.2322  -7.2322  -7.1935
    -7.1863  -7.1863  -7.1274  -7.0587  -7.0587  -7.0171  -7.0032  -6.9623
    -6.9623  -6.9287  -6.9273  -6.9273  -6.9121  -6.9121  -6.8953  -6.8586
    -6.8586  -6.8244  -6.7775  -6.7775  -6.7298  -6.7081  -6.6871  -6.6871
    -6.4460  -6.3224  -6.3224  -3.9942  -3.9764  -3.9764  -3.9737  -3.9599
    -3.9599  -3.9516  -3.9516  -3.9422  -3.9422  -3.9322  -3.9322  -3.9178
    -3.9128  -3.9128  -3.7987  -3.7987  -3.7963  -3.7734  -3.7734  -3.7674
    -3.7648  -3.7612  -3.7612  -3.7541  -3.7541  -3.7483  -3.7483  -3.7471
    -3.7411  -3.7411  -3.7388  -3.7349  -3.7325  -3.7325  -3.7298  -3.7217
    -3.7217  -3.7216  -3.7152  -3.7152  -3.7072  -3.6996  -3.6996  -3.6945
    -3.6887  -3.6887  -3.6859  -3.6816  -3.6816  -3.6792  -3.6706  -3.6659
    -3.6659  -3.6587  -3.6587  -3.6569  -3.6569  -3.6542  -3.6478  -3.6460
    -3.6460  -3.6395  -3.6395  -3.6280  -3.6280  -3.6263  -3.6262  -3.6142
    -3.6142  -3.6126  -3.6072  -3.6013  -3.6012  -3.6012  -3.5969  -3.5893
    -3.5893  -3.5880  -3.5880  -3.5871  -3.5842  -3.5829  -3.5795  -3.5795
    -3.5765  -3.5765  -3.5760  -3.5760  -3.5665  -3.5628  -3.5628  -3.5620
    -3.5531  -3.5531  -3.5516  -3.5448  -3.5403  -3.5403  -3.5303  -3.5292
    -3.5292  -3.5153  -3.5153  -3.5025  -3.5025  -3.5009  -3.5009  -3.4969
    -3.4969  -3.4960  -3.4862  -3.4793  -3.4562  -3.4537  -3.4537  -3.4376
    -3.4376  -3.4359  -3.4243  -3.4232  -3.4232  -3.4166  -3.4166  -3.4134
    -3.4134  -3.4086  -3.4033  -3.3969  -3.3969  -3.3862  -3.2525  -3.2492
    -3.2492  -3.2358  -3.2358  -3.2305  -3.2026  -3.2026  -3.1857  -3.1857
    -3.1810  -3.1259  -3.1074  -3.1074  -3.0740  -3.0160  -3.0160  -2.9807
    -2.8958  -2.8695  -2.8695  -2.8671  -2.8421  -2.8421   0.2325   0.2784
     0.3052   0.3052   0.6360   0.6360   0.6367   0.8396   0.8439   0.8439
     0.8644   0.9026   0.9026   1.0665   1.1282   1.1282   1.2400   1.2400
     1.2796   1.2997   1.3079   1.3079   1.4061   1.4061   1.7221   1.7840
     1.7840   1.8584   1.8584   2.1605   2.3723   2.5014   2.5158   2.5158
     2.5520   2.5520   2.5521   2.6367   2.6367   2.6455   2.6455   2.6879
     2.6883   2.6883   2.7109   2.7664   2.7722   2.7722   2.8075   2.8287
     2.8287   2.8632   2.9698   2.9698   2.9766   2.9804   2.9804   3.1250
     3.1250   3.1613   3.1808   3.2495   3.2495   3.5082   3.5082   3.6416
     4.0128   4.0128   4.0201   4.0323   4.0734   4.0734   4.1154   4.1154
     4.1260   4.1940   4.2693   4.2693   4.2890   4.2890   4.2950   4.3140
     4.3140   4.3364   4.3861   4.3861   4.3915   4.3946   4.4049   4.4049
     4.5338   4.5876   4.5876   4.8608   4.8608   5.1443   5.3203   5.3203
     5.8936   7.7344   8.2448   8.2448   8.7342   8.7552   8.7552   8.8109
     8.9090   8.9090   9.0746   9.3563   9.5196   9.5270   9.5270   9.8682
     9.8682   9.9608   9.9678   9.9678  10.0015  10.0142  10.0142  10.0250
    10.0442  10.0442  10.1864  10.1864  10.1961  10.2174  10.2174  10.2419
    10.2419  10.2530  10.2893  10.6006  10.6006  10.6972  11.0674  11.1425
    11.1425  11.1804  11.1804  11.3136  11.3558  11.3558  11.3695  11.6358
    11.6613  11.6613  11.8542  11.8687  11.8692  11.8692  12.0393  12.0393
    12.0476  12.0611  12.0611

     occupation numbers
     1.0000   1.0000   1.0000   1.0000   1.0000   1.0000   1.0000   1.0000
     1.0000   1.0000   1.0000   1.0000   1.0000   1.0000   1.0000   1.0000
     1.0000   1.0000   1.0000   1.0000   1.0000   1.0000   1.0000   1.0000
     1.0000   1.0000   1.0000   1.0000   1.0000   1.0000   1.0000   1.0000
     1.0000   1.0000   1.0000   1.0000   1.0000   1.0000   1.0000   1.0000
     1.0000   1.0000   1.0000   1.0000   1.0000   1.0000   1.0000   1.0000
     1.0000   1.0000   1.0000   1.0000   1.0000   1.0000   1.0000   1.0000
     1.0000   1.0000   1.0000   1.0000   1.0000   1.0000   1.0000   1.0000
     1.0000   1.0000   1.0000   1.0000   1.0000   1.0000   1.0000   1.0000
     1.0000   1.0000   1.0000   1.0000   1.0000   1.0000   1.0000   1.0000
     1.0000   1.0000   1.0000   1.0000   1.0000   1.0000   1.0000   1.0000
     1.0000   1.0000   1.0000   1.0000   1.0000   1.0000   1.0000   1.0000
     1.0000   1.0000   1.0000   1.0000   1.0000   1.0000   1.0000   1.0000
     1.0000   1.0000   1.0000   1.0000   1.0000   1.0000   1.0000   1.0000
     1.0000   1.0000   1.0000   1.0000   1.0000   1.0000   1.0000   1.0000
     1.0000   1.0000   1.0000   1.0000   1.0000   1.0000   1.0000   1.0000
     1.0000   1.0000   1.0000   1.0000   1.0000   1.0000   1.0000   1.0000
     1.0000   1.0000   1.0000   1.0000   1.0000   1.0000   1.0000   1.0000
     1.0000   1.0000   1.0000   1.0000   1.0000   1.0000   1.0000   1.0000
     1.0000   1.0000   1.0000   1.0000   1.0000   1.0000   1.0000   1.0000
     1.0000   1.0000   1.0000   1.0000   1.0000   1.0000   1.0000   1.0000
     1.0000   1.0000   1.0000   1.0000   1.0000   1.0000   1.0000   1.0000
     1.0000   1.0000   1.0000   1.0000   1.0000   1.0000   1.0000   1.0000
     1.0000   1.0000   1.0000   1.0000   1.0000   1.0000   1.0000   1.0000
     1.0000   1.0000   1.0000   1.0000   1.0000   1.0000   1.0000   1.0000
     1.0000   1.0000   1.0000   1.0000   1.0000   1.0000   1.0000   1.0000
     1.0000   1.0000   1.0000   1.0000   1.0000   1.0000   1.0000   1.0000
     1.0000   1.0000   1.0000   1.0000   1.0000   1.0000   1.0000   1.0000
     1.0000   1.0000   1.0000   1.0000   1.0000   1.0000   1.0000   1.0000
     1.0000   1.0000   1.0000   1.0000   1.0000   1.0000   1.0000   1.0000
     1.0000   1.0000   1.0000   1.0000   1.0000   1.0000   1.0000   1.0000
     1.0000   1.0000   1.0000   1.0000   1.0000   1.0000   1.0000   1.0000
     1.0000   1.0000   1.0000   1.0000   1.0000   1.0000   1.0000   1.0000
     1.0000   1.0000   1.0000   1.0000   1.0000   1.0000   1.0000   1.0000
     1.0000   1.0000   1.0000   1.0000   1.0000   1.0000   1.0000   1.0000
     1.0000   1.0000   1.0000   1.0000   1.0000   1.0000   1.0000   1.0000
     1.0000   0.0000   0.0000   0.0000   0.0000   0.0000   0.0000   0.0000
     0.0000   0.0000   0.0000   0.0000   0.0000   0.0000   0.0000   0.0000
     0.0000   0.0000   0.0000   0.0000   0.0000   0.0000   0.0000   0.0000
     0.0000   0.0000   0.0000   0.0000   0.0000   0.0000   0.0000   0.0000
     0.0000   0.0000   0.0000   0.0000   0.0000   0.0000   0.0000   0.0000
     0.0000   0.0000   0.0000   0.0000   0.0000   0.0000   0.0000   0.0000
     0.0000   0.0000   0.0000   0.0000   0.0000   0.0000   0.0000   0.0000
     0.0000   0.0000   0.0000

[...]

          k =-0.5000-0.5000-0.5000 (269968 PWs)   bands (ev):

[...]

 ------ SPIN DOWN ----------

[...]

          k =-0.2500 0.0000 0.2500 (269929 PWs)   bands (ev):

[...]

          k = 0.2500-0.2500-0.5000 (269988 PWs)   bands (ev):

  -103.5878 -61.0624 -60.9921 -60.9921  -7.4543  -7.3984  -7.2647  -7.2568
    -7.2336  -7.1680  -7.1149  -7.0230  -7.0207  -6.9958  -6.9828  -6.9632
    -6.9370  -6.9033  -6.8947  -6.8716  -6.8684  -6.8480  -6.8446  -6.8389
    -6.8266  -6.8053  -6.7770  -6.7712  -6.7604  -6.7504  -6.7262  -6.7195
    -6.4284  -6.3230  -6.3201  -3.9588  -3.9565  -3.9555  -3.9507  -3.9461
    -3.9449  -3.9333  -3.9225  -3.9218  -3.9213  -3.9134  -3.9128  -3.9005
    -3.8986  -3.8979  -3.7932  -3.7907  -3.7822  -3.7769  -3.7751  -3.7712
    -3.7705  -3.7655  -3.7639  -3.7567  -3.7543  -3.7528  -3.7516  -3.7478
    -3.7447  -3.7401  -3.7379  -3.7307  -3.7279  -3.7219  -3.7209  -3.7181
    -3.7158  -3.7108  -3.7060  -3.7024  -3.7001  -3.6968  -3.6925  -3.6910
    -3.6890  -3.6876  -3.6847  -3.6810  -3.6796  -3.6728  -3.6713  -3.6684
    -3.6665  -3.6632  -3.6573  -3.6571  -3.6536  -3.6494  -3.6470  -3.6456
    -3.6407  -3.6396  -3.6333  -3.6303  -3.6294  -3.6282  -3.6241  -3.6195
    -3.6185  -3.6162  -3.6123  -3.6098  -3.6086  -3.6039  -3.6021  -3.5978
    -3.5945  -3.5915  -3.5890  -3.5855  -3.5820  -3.5786  -3.5766  -3.5713
    -3.5691  -3.5689  -3.5675  -3.5627  -3.5616  -3.5589  -3.5580  -3.5552
    -3.5533  -3.5510  -3.5477  -3.5441  -3.5429  -3.5397  -3.5362  -3.5346
    -3.5301  -3.5215  -3.5172  -3.5168  -3.5095  -3.5063  -3.5024  -3.5001
    -3.4964  -3.4901  -3.4798  -3.4654  -3.4466  -3.4456  -3.4444  -3.4420
    -3.4413  -3.4294  -3.4264  -3.4241  -3.4159  -3.4152  -3.4092  -3.4060
    -3.4051  -3.4000  -3.3971  -3.3947  -3.3915  -3.3891  -3.3666  -3.3019
    -3.2721  -3.2623  -3.2452  -3.1831  -3.1736  -3.1615  -3.1243  -3.1133
    -3.1046  -3.0584  -3.0490  -3.0314  -3.0122  -3.0011  -2.9985  -2.9863
    -2.9685  -2.9555  -2.9334  -2.9253  -2.9193  -2.9093   0.5043   0.5586
     0.6088   0.6928   0.7119   0.7297   0.7497   0.7644   0.7755   0.7891
     0.7999   0.8361   0.8425   0.8709   0.8844   0.9306   0.9694   1.0684
     1.1148   1.2061   1.2402   1.2862   1.3384   1.3921   1.5097   1.7273
     1.7481   1.8982   1.9048   1.9406   2.1267   2.2731   2.3795   2.4081
     2.4150   2.4638   2.5304   2.5459   2.6147   2.6656   2.6883   2.7061
     2.7538   2.7979   2.8648   2.8994   2.9901   3.1412   3.1757   3.2208
     3.2756   3.3164   3.3332   3.3502   3.3658   3.3819   3.4119   3.4477
     3.4585   3.4739   3.4978   3.5034   3.5270   3.5445   3.5569   3.6026
     3.6137   3.6498   3.6692   3.7149   3.7457   3.7651   3.8432   3.8582
     3.9154   3.9515   3.9868   4.0101   4.0679   4.0762   4.1339   4.1808
     4.2309   4.2431   4.2526   4.3086   4.3684   4.4629   4.5670   4.6359
     4.6697   4.7048   4.7556   4.8318   4.8477   4.8756   5.1215   5.2008
     6.7481   8.1962   8.3001   8.8689   8.9547   9.0672   9.1396   9.2322
     9.3503   9.3853   9.4475   9.5240   9.5481   9.5918   9.6122   9.6318
     9.6637   9.7404   9.7509   9.7974   9.8322   9.8649   9.8839   9.9548
     9.9846   9.9920  10.0648  10.0950  10.1054  10.1818  10.2001  10.3262
    10.3533  10.3938  10.4384  10.6100  10.6972  10.7508  10.7788  10.8259
    10.8524  10.9569  11.0431  11.1439  11.2307  11.2857  11.3495  11.4125
    11.4661  11.4934  11.5029  11.5305  11.5850  11.5963  11.6280  11.6411
    11.6535  11.6785  11.6933

     occupation numbers
     1.0000   1.0000   1.0000   1.0000   1.0000   1.0000   1.0000   1.0000
     1.0000   1.0000   1.0000   1.0000   1.0000   1.0000   1.0000   1.0000
     1.0000   1.0000   1.0000   1.0000   1.0000   1.0000   1.0000   1.0000
     1.0000   1.0000   1.0000   1.0000   1.0000   1.0000   1.0000   1.0000
     1.0000   1.0000   1.0000   1.0000   1.0000   1.0000   1.0000   1.0000
     1.0000   1.0000   1.0000   1.0000   1.0000   1.0000   1.0000   1.0000
     1.0000   1.0000   1.0000   1.0000   1.0000   1.0000   1.0000   1.0000
     1.0000   1.0000   1.0000   1.0000   1.0000   1.0000   1.0000   1.0000
     1.0000   1.0000   1.0000   1.0000   1.0000   1.0000   1.0000   1.0000
     1.0000   1.0000   1.0000   1.0000   1.0000   1.0000   1.0000   1.0000
     1.0000   1.0000   1.0000   1.0000   1.0000   1.0000   1.0000   1.0000
     1.0000   1.0000   1.0000   1.0000   1.0000   1.0000   1.0000   1.0000
     1.0000   1.0000   1.0000   1.0000   1.0000   1.0000   1.0000   1.0000
     1.0000   1.0000   1.0000   1.0000   1.0000   1.0000   1.0000   1.0000
     1.0000   1.0000   1.0000   1.0000   1.0000   1.0000   1.0000   1.0000
     1.0000   1.0000   1.0000   1.0000   1.0000   1.0000   1.0000   1.0000
     1.0000   1.0000   1.0000   1.0000   1.0000   1.0000   1.0000   1.0000
     1.0000   1.0000   1.0000   1.0000   1.0000   1.0000   1.0000   1.0000
     1.0000   1.0000   1.0000   1.0000   1.0000   1.0000   1.0000   1.0000
     1.0000   1.0000   1.0000   1.0000   1.0000   1.0000   1.0000   1.0000
     1.0000   1.0000   1.0000   1.0000   1.0000   1.0000   1.0000   1.0000
     1.0000   1.0000   1.0000   1.0000   1.0000   1.0000   1.0000   1.0000
     1.0000   1.0000   1.0000   1.0000   1.0000   1.0000   1.0000   1.0000
     1.0000   1.0000   1.0000   1.0000   1.0000   1.0000   1.0000   1.0000
     1.0000   1.0000   1.0000   1.0000   1.0000   1.0000   1.0000   1.0000
     1.0000   1.0000   1.0000   1.0000   1.0000   1.0000   1.0000   1.0000
     1.0000   1.0000   1.0000   1.0000   1.0000   1.0000   1.0000   1.0000
     1.0000   1.0000   1.0000   1.0000   1.0000   1.0000   1.0000   1.0000
     1.0000   1.0000   1.0000   1.0000   1.0000   1.0000   1.0000   1.0000
     1.0000   1.0000   1.0000   1.0000   1.0000   1.0000   1.0000   1.0000
     1.0000   1.0000   1.0000   1.0000   1.0000   1.0000   1.0000   1.0000
     1.0000   1.0000   1.0000   1.0000   1.0000   1.0000   1.0000   1.0000
     1.0000   1.0000   1.0000   1.0000   1.0000   1.0000   1.0000   1.0000
     1.0000   1.0000   1.0000   1.0000   1.0000   1.0000   1.0000   1.0000
     1.0000   1.0000   1.0000   1.0000   1.0000   1.0000   1.0000   1.0000
     1.0000   1.0000   1.0000   1.0000   1.0000   1.0000   1.0000   1.0000
     0.0000   0.0000   0.0000   0.0000   0.0000   0.0000   0.0000   0.0000
     0.0000   0.0000   0.0000   0.0000   0.0000   0.0000   0.0000   0.0000
     0.0000   0.0000   0.0000   0.0000   0.0000   0.0000   0.0000   0.0000
     0.0000   0.0000   0.0000   0.0000   0.0000   0.0000   0.0000   0.0000
     0.0000   0.0000   0.0000   0.0000   0.0000   0.0000   0.0000   0.0000
     0.0000   0.0000   0.0000   0.0000   0.0000   0.0000   0.0000   0.0000
     0.0000   0.0000   0.0000   0.0000   0.0000   0.0000   0.0000   0.0000
     0.0000   0.0000   0.0000

     the Fermi energy is     6.3154 ev

!    total energy              =  -10100.55786495 Ry
     total all-electron energy =   -139419.086913 Ry
     estimated scf accuracy    <          3.9E-09 Ry
     smearing contrib. (-TS)   =      -0.00000000 Ry
     internal energy E=F+TS    =  -10100.55786495 Ry

     The total energy is F=E-TS. E is the sum of the following terms:
     one-electron contribution =   -3089.45769158 Ry
     hartree contribution      =    2121.93477456 Ry
     xc contribution           =   -1661.76653709 Ry
     ewald contribution        =   -2984.70201120 Ry
     Hubbard energy            =       0.27837471 Ry
     one-center paw contrib.   =   -4486.84477435 Ry
      -> PAW hartree energy AE =     123.78999068 Ry
      -> PAW hartree energy PS =    -123.14278018 Ry
      -> PAW xc energy AE      =    -143.26879191 Ry
      -> PAW xc energy PS      =      47.20548770 Ry
      -> total E_H with PAW    =    2122.58198506 Ry
      -> total E_XC with PAW   =   -1757.82984130 Ry

     total magnetization       =     1.00 Bohr mag/cell
     absolute magnetization    =     1.06 Bohr mag/cell

     convergence has been achieved in  14 iterations

     Writing all to output data dir ./out/Cu_vac_q0_U8_unrlxd.save/

     General routines

     Parallel routines

     Hubbard U routines

     PAW routines

   This run was terminated on:   3:23: 6  18Jul2024

   JOB DONE.