     Program PWSCF v.7.3.1 starts on 27Jun2024 at  3:36:23

     Waiting for input...

[...]

     Waiting for input...

     Program PWSCF v.7.3.1 starts on 27Jun2024 at  3:36:23

     Waiting for input...
     Reading input from standard input

     Current dimensions of program PWSCF are:
     Max number of different atomic species (ntypx) = 10
     Max number of k-points (npk) =  40000
     Max angular momentum in pseudopotentials (lmaxx) =  4
     file S.pbe-n-kjpaw_psl.1.0.0.UPF: wavefunction(s)  3S 3P renormalized
     file Zn.pbe-dnl-kjpaw_psl.1.0.0.UPF: wavefunction(s)  4S 3D renormalized
     Message from routine setup:
     using ibrav=0 with symmetry is DISCOURAGED, use correct ibrav instead

     Subspace diagonalization in iterative solution of the eigenvalue problem:
     a serial algorithm will be used

     Using Slab Decomposition

     bravais-lattice index     =            0
     lattice parameter (alat)  =       7.2721  a.u.
     unit-cell volume          =     271.9326 (a.u.)^3
     number of atoms/cell      =            2
     number of atomic types    =            2
     number of electrons       =        18.00
     number of Kohn-Sham states=           13
     kinetic-energy cutoff     =     100.0000  Ry
     charge density cutoff     =     400.0000  Ry
     scf convergence threshold =      1.0E-08
     mixing beta               =       0.4000
     number of iterations used =            8  plain     mixing
     Exchange-correlation= SLA  PW   PBX  PBC
                           (   1   4   3   4   0   0   0)

     celldm(1)=   7.272082  celldm(2)=   0.000000  celldm(3)=   0.000000
     celldm(4)=   0.000000  celldm(5)=   0.000000  celldm(6)=   0.000000

     crystal axes: (cart. coord. in units of alat)
               a(1) = (   0.000000   0.707107   0.707107 )
               a(2) = (   0.707107   0.000000   0.707107 )
               a(3) = (   0.707107   0.707107   0.000000 )

     reciprocal axes: (cart. coord. in units 2 pi/alat)
               b(1) = ( -0.707107  0.707107  0.707107 )
               b(2) = (  0.707107 -0.707107  0.707107 )
               b(3) = (  0.707107  0.707107 -0.707107 )

     PseudoPot. # 1 for S  read from file:
     /home/abdul/git_repo/ZnS/pseudo/QE/S.pbe-n-kjpaw_psl.1.0.0.UPF
     MD5 check sum: fb45dfebcf3e72a4e1bd4a866ec2e262
     Pseudo is Projector augmented-wave + core cor, Zval =  6.0
     Generated using &quot;atomic&quot; code by A. Dal Corso  v.6.3
     Shape of augmentation charge: PSQ
     Using radial grid of 1151 points,  6 beta functions with:
                l(1) =   0
                l(2) =   0
                l(3) =   1
                l(4) =   1
                l(5) =   2
                l(6) =   2
     Q(r) pseudized with 0 coefficients

     PseudoPot. # 2 for Zn read from file:
     /home/abdul/git_repo/ZnS/pseudo/QE/Zn.pbe-dnl-kjpaw_psl.1.0.0.UPF
     MD5 check sum: c608214d9520ac179f507641260889e3
     Pseudo is Projector augmented-wave + core cor, Zval = 12.0
     Generated using &quot;atomic&quot; code by A. Dal Corso  v.6.2.2
     Shape of augmentation charge: PSQ
     Using radial grid of 1201 points,  6 beta functions with:
                l(1) =   0
                l(2) =   0
                l(3) =   1
                l(4) =   1
                l(5) =   2
                l(6) =   2
     Q(r) pseudized with 0 coefficients

     atomic species   valence    mass     pseudopotential
     S                 6.00    32.06500     S ( 1.00)
     Zn               12.00    65.38000     Zn( 1.00)

     Starting magnetic structure
     atomic species   magnetization
     S               0.000
     Zn              0.000

     24 Sym. Ops. (no inversion) found

                                    s                        frac. trans.

      isym =  1     identity

 cryst.   s( 1) = (     1          0          0      )
                  (     0          1          0      )
                  (     0          0          1      )

 cart.    s( 1) = (  1.0000000  0.0000000  0.0000000 )
                  (  0.0000000  1.0000000  0.0000000 )
                  (  0.0000000  0.0000000  1.0000000 )

      isym =  2     180 deg rotation - cart. axis [0,0,1]

[...]

 cryst.   s( 9) = (     0          1          0      )
                  (     0          0          1      )
                  (     1          0          0      )

 cart.    s( 9) = (  0.0000000  0.0000000  1.0000000 )
                  (  1.0000000  0.0000000  0.0000000 )
                  (  0.0000000  1.0000000  0.0000000 )

[...]

 cryst.   s(10) = (    -1          0          1      )
                  (    -1          1          0      )
                  (    -1          0          0      )

 cart.    s(10) = (  0.0000000  0.0000000  1.0000000 )
                  ( -1.0000000  0.0000000  0.0000000 )
                  (  0.0000000 -1.0000000  0.0000000 )

[...]

      isym = 12     120 deg rotation - cart. axis [-1,-1,1]

[...]

      isym = 13     inv. 180 deg rotation - cart. axis [1,1,0]

[...]

      isym = 24     inv.  90 deg rotation - cart. axis [1,0,0]

 cryst.   s(24) = (     0         -1          1      )
                  (     1         -1          0      )
                  (     0         -1          0      )

 cart.    s(24) = ( -1.0000000  0.0000000  0.0000000 )
                  (  0.0000000  0.0000000  1.0000000 )
                  (  0.0000000 -1.0000000  0.0000000 )

   Cartesian axes

     site n.     atom                  positions (alat units)
         1        Zn     tau(   1) = (   0.0000000   0.0000000   0.0000000  )
         2        S      tau(   2) = (   0.3535534   0.3535534   1.0606602  )

   Crystallographic axes

     site n.     atom                  positions (cryst. coord.)
         1        Zn     tau(   1) = (  0.0000000  0.0000000  0.0000000  )
         2        S      tau(   2) = (  0.7500000  0.7500000 -0.2500000  )

     number of k points=   104  Gaussian smearing, width (Ry)=  0.0010
                       cart. coord. in units 2pi/alat
        k(    1) = (   0.0000000   0.0000000   0.0000000), wk =   0.0003644
        k(    2) = (   0.0505076   0.0505076  -0.0505076), wk =   0.0029155
        k(    3) = (   0.1010153   0.1010153  -0.1010153), wk =   0.0029155
        k(    4) = (   0.1515229   0.1515229  -0.1515229), wk =   0.0029155
        k(    5) = (   0.2020305   0.2020305  -0.2020305), wk =   0.0029155
        k(    6) = (   0.2525381   0.2525381  -0.2525381), wk =   0.0029155
        k(    7) = (   0.3030458   0.3030458  -0.3030458), wk =   0.0029155
        k(    8) = (  -0.3535534  -0.3535534   0.3535534), wk =   0.0014577
        k(    9) = (   0.1010153   0.0000000   0.0000000), wk =   0.0021866
        k(   10) = (   0.1515229   0.0505076  -0.0505076), wk =   0.0087464
        k(   11) = (   0.2020305   0.1010153  -0.1010153), wk =   0.0087464
        k(   12) = (   0.2525381   0.1515229  -0.1515229), wk =   0.0087464
        k(   13) = (   0.3030458   0.2020305  -0.2020305), wk =   0.0087464
        k(   14) = (   0.3535534   0.2525381  -0.2525381), wk =   0.0087464
        k(   15) = (  -0.3030458  -0.4040610   0.4040610), wk =   0.0087464
        k(   16) = (  -0.2525381  -0.3535534   0.3535534), wk =   0.0087464
        k(   17) = (  -0.2020305  -0.3030458   0.3030458), wk =   0.0087464
        k(   18) = (  -0.1515229  -0.2525381   0.2525381), wk =   0.0087464
        k(   19) = (  -0.1010153  -0.2020305   0.2020305), wk =   0.0087464
        k(   20) = (  -0.0505076  -0.1515229   0.1515229), wk =   0.0087464
        k(   21) = (   0.0000000  -0.1010153   0.1010153), wk =   0.0043732
        k(   22) = (   0.2020305   0.0000000   0.0000000), wk =   0.0021866
        k(   23) = (   0.2525381   0.0505076  -0.0505076), wk =   0.0087464
        k(   24) = (   0.3030458   0.1010153  -0.1010153), wk =   0.0087464
        k(   25) = (   0.3535534   0.1515229  -0.1515229), wk =   0.0087464
        k(   26) = (   0.4040610   0.2020305  -0.2020305), wk =   0.0087464
        k(   27) = (  -0.2525381  -0.4545686   0.4545686), wk =   0.0087464
        k(   28) = (  -0.2020305  -0.4040610   0.4040610), wk =   0.0087464
        k(   29) = (  -0.1515229  -0.3535534   0.3535534), wk =   0.0087464
        k(   30) = (  -0.1010153  -0.3030458   0.3030458), wk =   0.0087464
        k(   31) = (  -0.0505076  -0.2525381   0.2525381), wk =   0.0087464
        k(   32) = (  -0.0000000  -0.2020305   0.2020305), wk =   0.0043732
        k(   33) = (   0.3030458   0.0000000   0.0000000), wk =   0.0021866
        k(   34) = (   0.3535534   0.0505076  -0.0505076), wk =   0.0087464
        k(   35) = (   0.4040610   0.1010153  -0.1010153), wk =   0.0087464
        k(   36) = (   0.4545686   0.1515229  -0.1515229), wk =   0.0087464
        k(   37) = (  -0.2020305  -0.5050763   0.5050763), wk =   0.0087464
        k(   38) = (  -0.1515229  -0.4545686   0.4545686), wk =   0.0087464
        k(   39) = (  -0.1010153  -0.4040610   0.4040610), wk =   0.0087464
        k(   40) = (  -0.0505076  -0.3535534   0.3535534), wk =   0.0087464
        k(   41) = (   0.0000000  -0.3030458   0.3030458), wk =   0.0043732
        k(   42) = (   0.4040610   0.0000000   0.0000000), wk =   0.0021866
        k(   43) = (   0.4545686   0.0505076  -0.0505076), wk =   0.0087464
        k(   44) = (   0.5050763   0.1010153  -0.1010153), wk =   0.0087464
        k(   45) = (  -0.1515229  -0.5555839   0.5555839), wk =   0.0087464
        k(   46) = (  -0.1010153  -0.5050763   0.5050763), wk =   0.0087464
        k(   47) = (  -0.0505076  -0.4545686   0.4545686), wk =   0.0087464
        k(   48) = (   0.0000000  -0.4040610   0.4040610), wk =   0.0043732
        k(   49) = (   0.5050763   0.0000000   0.0000000), wk =   0.0021866
        k(   50) = (   0.5555839   0.0505076  -0.0505076), wk =   0.0087464
        k(   51) = (  -0.1010153  -0.6060915   0.6060915), wk =   0.0087464
        k(   52) = (  -0.0505076  -0.5555839   0.5555839), wk =   0.0087464
        k(   53) = (   0.0000000  -0.5050763   0.5050763), wk =   0.0043732
        k(   54) = (   0.6060915   0.0000000   0.0000000), wk =   0.0021866
        k(   55) = (  -0.0505076  -0.6565992   0.6565992), wk =   0.0087464
        k(   56) = (   0.0000000  -0.6060915   0.6060915), wk =   0.0043732
        k(   57) = (  -0.7071068   0.0000000   0.0000000), wk =   0.0010933
        k(   58) = (   0.2020305   0.1010153   0.0000000), wk =   0.0087464
        k(   59) = (   0.2525381   0.1515229  -0.0505076), wk =   0.0174927
        k(   60) = (   0.3030458   0.2020305  -0.1010153), wk =   0.0174927
[...]
        k(   90) = (  -0.2525381  -0.4545686   0.6565992), wk =   0.0174927
        k(   91) = (  -0.2020305  -0.4040610   0.6060915), wk =   0.0174927
        k(   92) = (  -0.1515229  -0.3535534   0.5555839), wk =   0.0087464
        k(   93) = (  -0.2020305  -0.5050763   0.7071068), wk =   0.0087464
        k(   94) = (  -0.1515229  -0.4545686   0.6565992), wk =   0.0174927
        k(   95) = (  -0.1010153  -0.4040610   0.6060915), wk =   0.0174927
        k(   96) = (  -0.0505076  -0.3535534   0.5555839), wk =   0.0174927
        k(   97) = (   0.0000000  -0.3030458   0.5050763), wk =   0.0087464
        k(   98) = (  -0.1010153  -0.5050763   0.7071068), wk =   0.0087464
        k(   99) = (  -0.0505076  -0.4545686   0.6565992), wk =   0.0174927
        k(  100) = (   0.0000000  -0.4040610   0.6060915), wk =   0.0087464
        k(  101) = (  -0.7071068   0.2020305  -0.0000000), wk =   0.0043732
        k(  102) = (  -0.1010153  -0.4040610   0.7071068), wk =   0.0087464
        k(  103) = (  -0.0505076  -0.3535534   0.6565992), wk =   0.0087464
        k(  104) = (  -0.7071068   0.3030458   0.0000000), wk =   0.0043732

                       cryst. coord.
        k(    1) = (   0.0000000   0.0000000   0.0000000), wk =   0.0003644
        k(    2) = (   0.0000000   0.0000000   0.0714286), wk =   0.0029155
        k(    3) = (   0.0000000   0.0000000   0.1428571), wk =   0.0029155
        k(    4) = (   0.0000000   0.0000000   0.2142857), wk =   0.0029155
        k(    5) = (   0.0000000   0.0000000   0.2857143), wk =   0.0029155
        k(    6) = (   0.0000000   0.0000000   0.3571429), wk =   0.0029155
        k(    7) = (   0.0000000   0.0000000   0.4285714), wk =   0.0029155
        k(    8) = (   0.0000000   0.0000000  -0.5000000), wk =   0.0014577
        k(    9) = (   0.0000000   0.0714286   0.0714286), wk =   0.0021866
        k(   10) = (   0.0000000   0.0714286   0.1428571), wk =   0.0087464
        k(   11) = (   0.0000000   0.0714286   0.2142857), wk =   0.0087464
        k(   12) = (   0.0000000   0.0714286   0.2857143), wk =   0.0087464
        k(   13) = (   0.0000000   0.0714286   0.3571429), wk =   0.0087464
        k(   14) = (   0.0000000   0.0714286   0.4285714), wk =   0.0087464
        k(   15) = (   0.0000000   0.0714286  -0.5000000), wk =   0.0087464
        k(   16) = (   0.0000000   0.0714286  -0.4285714), wk =   0.0087464
        k(   17) = (   0.0000000   0.0714286  -0.3571429), wk =   0.0087464
        k(   18) = (   0.0000000   0.0714286  -0.2857143), wk =   0.0087464
        k(   19) = (   0.0000000   0.0714286  -0.2142857), wk =   0.0087464
        k(   20) = (   0.0000000   0.0714286  -0.1428571), wk =   0.0087464
        k(   21) = (   0.0000000   0.0714286  -0.0714286), wk =   0.0043732
        k(   22) = (   0.0000000   0.1428571   0.1428571), wk =   0.0021866
        k(   23) = (   0.0000000   0.1428571   0.2142857), wk =   0.0087464
        k(   24) = (   0.0000000   0.1428571   0.2857143), wk =   0.0087464
        k(   25) = (   0.0000000   0.1428571   0.3571429), wk =   0.0087464
        k(   26) = (   0.0000000   0.1428571   0.4285714), wk =   0.0087464
        k(   27) = (   0.0000000   0.1428571  -0.5000000), wk =   0.0087464
        k(   28) = (   0.0000000   0.1428571  -0.4285714), wk =   0.0087464
        k(   29) = (   0.0000000   0.1428571  -0.3571429), wk =   0.0087464
        k(   30) = (   0.0000000   0.1428571  -0.2857143), wk =   0.0087464
        k(   31) = (   0.0000000   0.1428571  -0.2142857), wk =   0.0087464
        k(   32) = (   0.0000000   0.1428571  -0.1428571), wk =   0.0043732
        k(   33) = (   0.0000000   0.2142857   0.2142857), wk =   0.0021866
        k(   34) = (   0.0000000   0.2142857   0.2857143), wk =   0.0087464
        k(   35) = (   0.0000000   0.2142857   0.3571429), wk =   0.0087464
        k(   36) = (   0.0000000   0.2142857   0.4285714), wk =   0.0087464
        k(   37) = (   0.0000000   0.2142857  -0.5000000), wk =   0.0087464
        k(   38) = (   0.0000000   0.2142857  -0.4285714), wk =   0.0087464
        k(   39) = (   0.0000000   0.2142857  -0.3571429), wk =   0.0087464
        k(   40) = (   0.0000000   0.2142857  -0.2857143), wk =   0.0087464
        k(   41) = (   0.0000000   0.2142857  -0.2142857), wk =   0.0043732
        k(   42) = (   0.0000000   0.2857143   0.2857143), wk =   0.0021866
        k(   43) = (   0.0000000   0.2857143   0.3571429), wk =   0.0087464
        k(   44) = (   0.0000000   0.2857143   0.4285714), wk =   0.0087464
        k(   45) = (   0.0000000   0.2857143  -0.5000000), wk =   0.0087464
        k(   46) = (   0.0000000   0.2857143  -0.4285714), wk =   0.0087464
        k(   47) = (   0.0000000   0.2857143  -0.3571429), wk =   0.0087464
        k(   48) = (   0.0000000   0.2857143  -0.2857143), wk =   0.0043732
        k(   49) = (   0.0000000   0.3571429   0.3571429), wk =   0.0021866
        k(   50) = (   0.0000000   0.3571429   0.4285714), wk =   0.0087464
        k(   51) = (   0.0000000   0.3571429  -0.5000000), wk =   0.0087464
        k(   52) = (   0.0000000   0.3571429  -0.4285714), wk =   0.0087464
        k(   53) = (   0.0000000   0.3571429  -0.3571429), wk =   0.0043732
        k(   54) = (   0.0000000   0.4285714   0.4285714), wk =   0.0021866
        k(   55) = (   0.0000000   0.4285714  -0.5000000), wk =   0.0087464
        k(   56) = (   0.0000000   0.4285714  -0.4285714), wk =   0.0043732
        k(   57) = (   0.0000000  -0.5000000  -0.5000000), wk =   0.0010933
        k(   58) = (   0.0714286   0.1428571   0.2142857), wk =   0.0087464
        k(   59) = (   0.0714286   0.1428571   0.2857143), wk =   0.0174927
        k(   60) = (   0.0714286   0.1428571   0.3571429), wk =   0.0174927
[...]
        k(   90) = (   0.1428571   0.2857143  -0.5000000), wk =   0.0174927
        k(   91) = (   0.1428571   0.2857143  -0.4285714), wk =   0.0174927
        k(   92) = (   0.1428571   0.2857143  -0.3571429), wk =   0.0087464
        k(   93) = (   0.1428571   0.3571429  -0.5000000), wk =   0.0087464
        k(   94) = (   0.1428571   0.3571429  -0.4285714), wk =   0.0174927
        k(   95) = (   0.1428571   0.3571429  -0.3571429), wk =   0.0174927
        k(   96) = (   0.1428571   0.3571429  -0.2857143), wk =   0.0174927
        k(   97) = (   0.1428571   0.3571429  -0.2142857), wk =   0.0087464
        k(   98) = (   0.1428571   0.4285714  -0.4285714), wk =   0.0087464
        k(   99) = (   0.1428571   0.4285714  -0.3571429), wk =   0.0174927
        k(  100) = (   0.1428571   0.4285714  -0.2857143), wk =   0.0087464
        k(  101) = (   0.1428571  -0.5000000  -0.3571429), wk =   0.0043732
        k(  102) = (   0.2142857   0.4285714  -0.3571429), wk =   0.0087464
        k(  103) = (   0.2142857   0.4285714  -0.2857143), wk =   0.0087464
        k(  104) = (   0.2142857  -0.5000000  -0.2857143), wk =   0.0043732

     Check: negative core charge=   -0.000002
     Generating pointlists ...
     new r_m :   0.2526 (alat units)  1.8370 (a.u.) for type    1
     new r_m :   0.2526 (alat units)  1.8370 (a.u.) for type    2

     Initial potential from superposition of free atoms

     starting charge      17.9962, renormalised to      18.0000
     Starting wfcs are   13 randomized atomic wfcs
     Checking if some PAW data can be deallocated...

     Self-consistent Calculation

     iteration #  1     ecut=   100.00 Ry     beta= 0.40
     Davidson diagonalization with overlap

     ethr =  1.00E-02,  avg # of iterations =  4.6

     Threshold (ethr) on eigenvalues was too large:
     Diagonalizing with lowered threshold

     Davidson diagonalization with overlap

[...]

     total energy              =    -310.13008824 Ry
     estimated scf accuracy    <       0.05673295 Ry

     total magnetization       =    -0.00 Bohr mag/cell
     absolute magnetization    =     0.00 Bohr mag/cell

[...]

     total energy              =    -310.13681515 Ry
     estimated scf accuracy    <       0.00000005 Ry

[...]

     iteration #  9     ecut=   100.00 Ry     beta= 0.40
     Davidson diagonalization with overlap

     ethr =  1.81E-10,  avg # of iterations =  2.0

     Magnetic moment per site  (integrated on atomic sphere of radius R)
     atom   1 (R=0.253)  charge= 10.1599  magn= -0.0000
     atom   2 (R=0.253)  charge=  3.9939  magn=  0.0000

     End of self-consistent calculation

 ------ SPIN UP ------------

          k = 0.0000 0.0000 0.0000 (  4621 PWs)   bands (ev):

    -7.4622  -0.6753  -0.6753  -0.6753  -0.1940  -0.1940   5.5452   5.5452
     5.5452   7.5516  11.9191  11.9191  11.9191

     occupation numbers
     1.0000   1.0000   1.0000   1.0000   1.0000   1.0000   1.0000   1.0000
     1.0000   0.0000   0.0000   0.0000   0.0000

[...]

          k =-0.3536-0.3536 0.3536 (  4584 PWs)   bands (ev):

[...]

 ------ SPIN DOWN ----------

[...]

          k = 0.0000-0.4041 0.6061 (  4583 PWs)   bands (ev):

[...]

          k =-0.7071 0.3030 0.0000 (  4594 PWs)   bands (ev):

    -6.2676  -0.5510  -0.4004  -0.2721  -0.2065   0.1779   1.0522   2.9136
     2.9350  11.0204  11.3104  13.6126  13.9203

     occupation numbers
     1.0000   1.0000   1.0000   1.0000   1.0000   1.0000   1.0000   1.0000
     1.0000   0.0000   0.0000   0.0000   0.0000

     the Fermi energy is     6.5005 ev

!    total energy              =    -310.13681515 Ry
     total all-electron energy =     -4390.634959 Ry
     estimated scf accuracy    <          1.1E-09 Ry
     smearing contrib. (-TS)   =      -0.00000000 Ry
     internal energy E=F+TS    =    -310.13681515 Ry

     The total energy is F=E-TS. E is the sum of the following terms:
     one-electron contribution =     -86.06527737 Ry
     hartree contribution      =      61.29243674 Ry
     xc contribution           =     -52.33543459 Ry
     ewald contribution        =     -91.47497255 Ry
     one-center paw contrib.   =    -141.55356738 Ry
      -> PAW hartree energy AE =     134.55814118 Ry
      -> PAW hartree energy PS =    -133.86068210 Ry
      -> PAW xc energy AE      =    -193.59903367 Ry
      -> PAW xc energy PS      =      51.34800721 Ry
      -> total E_H with PAW    =      61.98989582 Ry
      -> total E_XC with PAW   =    -194.58646105 Ry

     total magnetization       =     0.00 Bohr mag/cell
     absolute magnetization    =     0.00 Bohr mag/cell

     convergence has been achieved in   9 iterations

     Writing all to output data dir ./out/ZnS.save/ :
     XML data file, charge density, pseudopotentials, collected wavefunctions

     General routines

     Parallel routines

     PAW routines

   This run was terminated on:   3:42:48  27Jun2024

   JOB DONE.
[mpiexec@unam-asus] Sending Ctrl-C to processes as requested
[mpiexec@unam-asus] Press Ctrl-C again to force abort

=   BAD TERMINATION OF ONE OF YOUR APPLICATION PROCESSES
=   RANK 1 PID 175361 RUNNING AT unam-asus
=   KILLED BY SIGNAL: 2 (Interrupt)

[...]

=   BAD TERMINATION OF ONE OF YOUR APPLICATION PROCESSES
=   RANK 9 PID 175369 RUNNING AT unam-asus
=   KILLED BY SIGNAL: 2 (Interrupt)