     Program PWSCF v.7.2 starts on  1Jul2024 at 11:26: 8

     Waiting for input...
     Reading input from standard input

     Current dimensions of program PWSCF are:
     Max number of different atomic species (ntypx) = 10
     Max number of k-points (npk) =  40000
     Max angular momentum in pseudopotentials (lmaxx) =  4
     file S.pbe-n-kjpaw_psl.1.0.0.UPF: wavefunction(s)  3S 3P renormalized
     file Zn.pbe-dnl-kjpaw_psl.1.0.0.UPF: wavefunction(s)  4S 3D renormalized
     Found identity + (  0.0000  0.2500  0.2500) symmetry
     This is a supercell, fractional translations are disabled

     K-points division:     npool     =      10
     R & G space division:  proc/nbgrp/npool/nimage =     112
     Subspace diagonalization in iterative solution of the eigenvalue problem:
     one sub-group per band group will be used

     Using Slab Decomposition

     bravais-lattice index     =            1
     lattice parameter (alat)  =      20.5686  a.u.
     unit-cell volume          =    8701.8437 (a.u.)^3
     number of atoms/cell      =           64
     number of atomic types    =            2
     number of electrons       =       576.00
     number of Kohn-Sham states=          345
     kinetic-energy cutoff     =     105.0000  Ry
     charge density cutoff     =     420.0000  Ry
     scf convergence threshold =      1.0E-06
     mixing beta               =       0.7000
     number of iterations used =            8  plain     mixing
     Exchange-correlation= SLA  PW   PBX  PBC
                           (   1   4   3   4   0   0   0)
     Hubbard projectors: ortho-atomic
     Hubbard parameters of DFT+U (Dudarev formulation) in eV:
     U(Zn-3d) =  6.0000

     Internal variables: lda_plus_u = T, lda_plus_u_kind = 0

     celldm(1)=  20.568554  celldm(2)=   0.000000  celldm(3)=   0.000000
     celldm(4)=   0.000000  celldm(5)=   0.000000  celldm(6)=   0.000000

     crystal axes: (cart. coord. in units of alat)
               a(1) = (   1.000000   0.000000   0.000000 )
               a(2) = (   0.000000   1.000000   0.000000 )
               a(3) = (   0.000000   0.000000   1.000000 )

     reciprocal axes: (cart. coord. in units 2 pi/alat)
               b(1) = (  1.000000  0.000000  0.000000 )
               b(2) = (  0.000000  1.000000  0.000000 )
               b(3) = (  0.000000  0.000000  1.000000 )

     PseudoPot. # 1 for S  read from file:
     /arf/home/amuhaymin/pseudo/S.pbe-n-kjpaw_psl.1.0.0.UPF
     MD5 check sum: fb45dfebcf3e72a4e1bd4a866ec2e262
     Pseudo is Projector augmented-wave + core cor, Zval =  6.0
     Generated using &quot;atomic&quot; code by A. Dal Corso  v.6.3
     Shape of augmentation charge: PSQ
     Using radial grid of 1151 points,  6 beta functions with:
                l(1) =   0
                l(2) =   0
                l(3) =   1
                l(4) =   1
                l(5) =   2
                l(6) =   2
     Q(r) pseudized with 0 coefficients

     PseudoPot. # 2 for Zn read from file:
     /arf/home/amuhaymin/pseudo/Zn.pbe-dnl-kjpaw_psl.1.0.0.UPF
     MD5 check sum: c608214d9520ac179f507641260889e3
     Pseudo is Projector augmented-wave + core cor, Zval = 12.0
     Generated using &quot;atomic&quot; code by A. Dal Corso  v.6.2.2
     Shape of augmentation charge: PSQ
     Using radial grid of 1201 points,  6 beta functions with:
                l(1) =   0
                l(2) =   0
                l(3) =   1
                l(4) =   1
                l(5) =   2
                l(6) =   2
     Q(r) pseudized with 0 coefficients

     atomic species   valence    mass     pseudopotential
        S              6.00    32.06500     S ( 1.00)
        Zn            12.00    65.38000     Zn( 1.00)

     24 Sym. Ops. (no inversion) found

                                    s                        frac. trans.

      isym =  1     identity

 cryst.   s( 1) = (     1          0          0      )
                  (     0          1          0      )
                  (     0          0          1      )

 cart.    s( 1) = (  1.0000000  0.0000000  0.0000000 )
                  (  0.0000000  1.0000000  0.0000000 )
                  (  0.0000000  0.0000000  1.0000000 )

      isym =  2     180 deg rotation - cart. axis [0,0,1]

[...]

 cryst.   s( 9) = (     0          1          0      )
                  (     0          0          1      )
                  (     1          0          0      )

 cart.    s( 9) = (  0.0000000  0.0000000  1.0000000 )
                  (  1.0000000  0.0000000  0.0000000 )
                  (  0.0000000  1.0000000  0.0000000 )

[...]

 cryst.   s(10) = (     0         -1          0      )
                  (     0          0         -1      )
                  (     1          0          0      )

 cart.    s(10) = (  0.0000000  0.0000000  1.0000000 )
                  ( -1.0000000  0.0000000  0.0000000 )
                  (  0.0000000 -1.0000000  0.0000000 )

[...]

      isym = 12     120 deg rotation - cart. axis [-1,-1,1]

[...]

      isym = 13     inv. 180 deg rotation - cart. axis [1,1,0]

[...]

      isym = 24     inv.  90 deg rotation - cart. axis [1,0,0]

 cryst.   s(24) = (    -1          0          0      )
                  (     0          0         -1      )
                  (     0          1          0      )

 cart.    s(24) = ( -1.0000000  0.0000000  0.0000000 )
                  (  0.0000000  0.0000000  1.0000000 )
                  (  0.0000000 -1.0000000  0.0000000 )

     point group T_d (-43m)
     there are  5 classes
     the character table:

       E     8C3   3C2   6S4   6s_d
A_1    1.00  1.00  1.00  1.00  1.00
A_2    1.00  1.00  1.00 -1.00 -1.00
E      2.00 -1.00  2.00  0.00  0.00
T_1    3.00  0.00 -1.00  1.00 -1.00
T_2    3.00  0.00 -1.00 -1.00  1.00

     the symmetry operations in each class and the name of the first element:

     E        1
          identity
     8C3      5    7    8    6   12    9   10   11
          120 deg rotation - cart. axis [-1,-1,-1]
     3C2      2    3    4
          180 deg rotation - cart. axis [0,0,1]
     6S4     15   16   20   19   23   24
          inv.  90 deg rotation - cart. axis [0,0,-1]
     6s_d    13   14   17   18   21   22
          inv. 180 deg rotation - cart. axis [1,1,0]

   Cartesian axes

     site n.     atom                  positions (alat units)
         1           Zn  tau(   1) = (   0.0000000   0.0000000   0.0000000  )
         2           Zn  tau(   2) = (   0.0000000   0.2500000   0.2500000  )
         3           Zn  tau(   3) = (   0.2500000   0.0000000   0.2500000  )
         4           Zn  tau(   4) = (   0.2500000   0.2500000   0.0000000  )
         5           S   tau(   5) = (   0.1250000   0.3750000   0.3750000  )
         6           S   tau(   6) = (   0.1250000   0.1250000   0.1250000  )
         7           S   tau(   7) = (   0.3750000   0.3750000   0.1250000  )
         8           S   tau(   8) = (   0.3750000   0.1250000   0.3750000  )
         9           Zn  tau(   9) = (   0.0000000   0.0000000   0.5000000  )
        10           Zn  tau(  10) = (   0.0000000   0.2500000   0.7500000  )
        11           Zn  tau(  11) = (   0.2500000   0.0000000   0.7500000  )
        12           Zn  tau(  12) = (   0.2500000   0.2500000   0.5000000  )
        13           S   tau(  13) = (   0.1250000   0.3750000   0.8750000  )
        14           S   tau(  14) = (   0.1250000   0.1250000   0.6250000  )
        15           S   tau(  15) = (   0.3750000   0.3750000   0.6250000  )
        16           S   tau(  16) = (   0.3750000   0.1250000   0.8750000  )
        17           Zn  tau(  17) = (   0.0000000   0.5000000   0.0000000  )
        18           Zn  tau(  18) = (   0.0000000   0.7500000   0.2500000  )
        19           Zn  tau(  19) = (   0.2500000   0.5000000   0.2500000  )
        20           Zn  tau(  20) = (   0.2500000   0.7500000   0.0000000  )
        21           S   tau(  21) = (   0.1250000   0.8750000   0.3750000  )
        22           S   tau(  22) = (   0.1250000   0.6250000   0.1250000  )
        23           S   tau(  23) = (   0.3750000   0.8750000   0.1250000  )
        24           S   tau(  24) = (   0.3750000   0.6250000   0.3750000  )
        25           Zn  tau(  25) = (   0.0000000   0.5000000   0.5000000  )
        26           Zn  tau(  26) = (   0.0000000   0.7500000   0.7500000  )
        27           Zn  tau(  27) = (   0.2500000   0.5000000   0.7500000  )
        28           Zn  tau(  28) = (   0.2500000   0.7500000   0.5000000  )
        29           S   tau(  29) = (   0.1250000   0.8750000   0.8750000  )
        30           S   tau(  30) = (   0.1250000   0.6250000   0.6250000  )
        31           S   tau(  31) = (   0.3750000   0.8750000   0.6250000  )
        32           S   tau(  32) = (   0.3750000   0.6250000   0.8750000  )
        33           Zn  tau(  33) = (   0.5000000   0.0000000   0.0000000  )
        34           Zn  tau(  34) = (   0.5000000   0.2500000   0.2500000  )
        35           Zn  tau(  35) = (   0.7500000   0.0000000   0.2500000  )
        36           Zn  tau(  36) = (   0.7500000   0.2500000   0.0000000  )
        37           S   tau(  37) = (   0.6250000   0.3750000   0.3750000  )
        38           S   tau(  38) = (   0.6250000   0.1250000   0.1250000  )
        39           S   tau(  39) = (   0.8750000   0.3750000   0.1250000  )
        40           S   tau(  40) = (   0.8750000   0.1250000   0.3750000  )
        41           Zn  tau(  41) = (   0.5000000   0.0000000   0.5000000  )
        42           Zn  tau(  42) = (   0.5000000   0.2500000   0.7500000  )
        43           Zn  tau(  43) = (   0.7500000   0.0000000   0.7500000  )
        44           Zn  tau(  44) = (   0.7500000   0.2500000   0.5000000  )
        45           S   tau(  45) = (   0.6250000   0.3750000   0.8750000  )
        46           S   tau(  46) = (   0.6250000   0.1250000   0.6250000  )
        47           S   tau(  47) = (   0.8750000   0.3750000   0.6250000  )
        48           S   tau(  48) = (   0.8750000   0.1250000   0.8750000  )
        49           Zn  tau(  49) = (   0.5000000   0.5000000   0.0000000  )
        50           Zn  tau(  50) = (   0.5000000   0.7500000   0.2500000  )
        51           Zn  tau(  51) = (   0.7500000   0.5000000   0.2500000  )
        52           Zn  tau(  52) = (   0.7500000   0.7500000   0.0000000  )
        53           S   tau(  53) = (   0.6250000   0.8750000   0.3750000  )
        54           S   tau(  54) = (   0.6250000   0.6250000   0.1250000  )
        55           S   tau(  55) = (   0.8750000   0.8750000   0.1250000  )
        56           S   tau(  56) = (   0.8750000   0.6250000   0.3750000  )
        57           Zn  tau(  57) = (   0.5000000   0.5000000   0.5000000  )
        58           Zn  tau(  58) = (   0.5000000   0.7500000   0.7500000  )
        59           Zn  tau(  59) = (   0.7500000   0.5000000   0.7500000  )
        60           Zn  tau(  60) = (   0.7500000   0.7500000   0.5000000  )
        61           S   tau(  61) = (   0.6250000   0.8750000   0.8750000  )
        62           S   tau(  62) = (   0.6250000   0.6250000   0.6250000  )
[...]
       0.000  0.000 -0.000  0.996 -0.085
       0.726  0.666  0.172 -0.000 -0.000
     occupation matrix ns (before diag.):
       0.998 -0.000 -0.000  0.000  0.000
      -0.000  0.996 -0.000  0.000  0.000
      -0.000 -0.000  0.996  0.000  0.000
       0.000  0.000  0.000  0.998 -0.000
       0.000  0.000  0.000 -0.000  0.996
     ------------------------ ATOM   58 ------------------------
     Tr[ns( 58)] =   9.96587
     eigenvalues:
       0.996  0.996  0.996  0.998  0.998
     eigenvectors (columns):
      -0.000 -0.000 -0.000  0.866  0.500
       0.348 -0.707  0.616 -0.000  0.000
       0.871 -0.000 -0.492 -0.000  0.000
       0.000 -0.000  0.000  0.500 -0.866
      -0.348 -0.707 -0.616 -0.000 -0.000
     occupation matrix ns (before diag.):
       0.998 -0.000  0.000 -0.000 -0.000
      -0.000  0.996 -0.000 -0.000 -0.000
       0.000 -0.000  0.996 -0.000  0.000
      -0.000 -0.000 -0.000  0.998  0.000
      -0.000 -0.000  0.000  0.000  0.996
     ------------------------ ATOM   59 ------------------------
     Tr[ns( 59)] =   9.96587
     eigenvalues:
       0.996  0.996  0.996  0.998  0.998
     eigenvectors (columns):
      -0.000 -0.000 -0.000  0.866  0.500
       0.871 -0.000 -0.492 -0.000  0.000
       0.348 -0.707  0.616 -0.000  0.000
      -0.000  0.000 -0.000 -0.500  0.866
      -0.348 -0.707 -0.616 -0.000 -0.000
     occupation matrix ns (before diag.):
       0.998  0.000 -0.000  0.000 -0.000
       0.000  0.996 -0.000  0.000  0.000
      -0.000 -0.000  0.996  0.000 -0.000
       0.000  0.000  0.000  0.998 -0.000
      -0.000  0.000 -0.000 -0.000  0.996
     ------------------------ ATOM   60 ------------------------
     Tr[ns( 60)] =   9.96587
     eigenvalues:
       0.996  0.996  0.996  0.998  0.998
     eigenvectors (columns):
      -0.000  0.000  0.000 -0.000  1.000
      -0.348  0.707  0.616  0.000 -0.000
      -0.348 -0.707  0.616 -0.000 -0.000
       0.000  0.000 -0.000 -1.000 -0.000
       0.871 -0.000  0.492  0.000  0.000
     occupation matrix ns (before diag.):
       0.998 -0.000 -0.000  0.000  0.000
      -0.000  0.996  0.000 -0.000  0.000
      -0.000  0.000  0.996  0.000  0.000
       0.000 -0.000  0.000  0.998 -0.000
       0.000  0.000  0.000 -0.000  0.996

     Number of occupied Hubbard levels =  318.9079

     HUBBARD ENERGY =    0.2399  (Ry)

     End of self-consistent calculation

          k = 0.0000 0.0000 0.0000 (158355 PWs)   bands (ev):

    -7.4508  -6.9847  -6.9846  -6.9846  -6.9846  -6.9846  -6.9846  -6.7284
    -6.7284  -6.7284  -6.7284  -6.7283  -6.7283  -6.7283  -6.7283  -6.7283
    -6.7283  -6.7283  -6.7283  -6.7206  -6.7206  -6.7206  -6.7206  -6.4963
    -6.4963  -6.4963  -6.4840  -6.4840  -6.4840  -6.4839  -6.4839  -6.4839
    -3.2060  -3.2060  -3.2060  -3.1347  -3.1347  -3.1347  -3.1347  -3.1347
    -3.1346  -3.1346  -3.1346  -3.1208  -3.1208  -3.1208  -3.1208  -3.1208
    -3.1208  -3.1208  -3.1208  -3.1208  -3.1207  -3.1207  -3.1207  -3.1078
    -3.1078  -3.1078  -3.1013  -3.1013  -3.1013  -3.1013  -3.1013  -3.1013
    -3.1013  -3.1013  -3.1013  -3.1012  -3.1012  -3.1012  -3.0956  -3.0956
    -3.0956  -3.0956  -3.0956  -3.0956  -3.0956  -3.0956  -3.0956  -3.0955
    -3.0955  -3.0955  -3.0888  -3.0888  -3.0887  -3.0887  -3.0887  -3.0887
    -3.0643  -3.0643  -3.0643  -3.0643  -3.0643  -3.0642  -3.0588  -3.0588
    -3.0588  -3.0588  -3.0588  -3.0588  -2.9811  -2.9811  -2.9811  -2.9811
    -2.9811  -2.9811  -2.9482  -2.9482  -2.9481  -2.9481  -2.9481  -2.9481
    -2.9353  -2.9353  -2.9353  -2.9353  -2.9353  -2.9353  -2.9353  -2.9353
    -2.9353  -2.9353  -2.9353  -2.9351  -2.9332  -2.9332  -2.9332  -2.9332
    -2.9332  -2.9332  -2.9319  -2.9319  -2.9319  -2.9319  -2.9319  -2.9319
    -2.9319  -2.9319  -2.9319  -2.9318  -2.9318  -2.9317  -2.9264  -2.9264
    -2.9099  -2.9099  -2.9099  -2.9099  -2.9099  -2.9098  -2.8944  -2.8944
    -2.8944  -2.8944  -2.8944  -2.8944  -2.8944  -2.8944  -2.8913  -2.8913
    -2.8913  -2.8912  -2.8912  -2.8911  -2.8561  -2.8560  -2.8560  -2.6522
    -2.6522  -2.6522  -2.6521  -2.6521  -2.6521  -2.6521  -2.6521  -2.6521
    -2.6521  -2.6521  -2.6521  -2.5427  -2.5426  -2.5426  -2.5426  -2.4458
    -2.4458  -2.4458  -2.3042  -2.3042  -2.3042  -2.3042  -2.3042  -2.3042
     0.3943   0.3943   0.3943   0.3943   0.7945   0.7945   0.7945   1.0062
     1.0063   1.0063   1.0063   1.0063   1.0063   1.4394   1.4394   1.4394
     1.4394   1.4395   1.4395   1.4395   1.4395   1.4395   1.4395   1.4395
     1.4395   2.7167   2.7167   2.7167   2.7167   2.7167   2.7168   2.7348
     2.7348   2.7348   2.7348   2.7348   2.7348   2.8685   2.8685   2.8685
     2.8686   2.8686   2.8686   2.9826   2.9826   2.9826   2.9826   2.9826
     2.9826   2.9826   2.9826   2.9827   2.9827   2.9827   2.9827   3.3292
     3.3292   3.3292   3.3292   3.3292   3.3292   4.2177   4.2177   4.2177
     4.2177   4.2177   4.2177   4.2177   4.2177   4.2177   4.2178   4.2178
     4.2178   4.5360   4.5360   4.5360   4.5360   4.5360   4.5360   4.5360
     4.5360   4.5361   4.5361   4.5361   4.5361   4.5749   4.5749   4.5749
     4.5749   4.5749   4.5749   4.5749   4.5749   5.3690   5.3690   5.3690
     7.5799   8.8159   8.8159   8.8159   8.8159   8.9764   8.9764   8.9764
     9.6126   9.6126   9.6126   9.9865   9.9866   9.9866   9.9866   9.9866
     9.9866  10.1187  10.1188  10.1188  10.1188  10.1188  10.1188  10.3288
    10.3289  10.3289  10.3289  10.3289  10.3289  10.3289  10.3289  10.3289
    10.3289  10.3289  10.3289  11.2213  11.2213  11.2213  11.2213  11.2213
    11.2213  11.4907  11.4908  11.4908  11.4908  11.4908  11.4908  11.9448
    12.1838  12.1851  12.1867  12.1867  12.1868  12.1868  12.1868  12.1868
    12.1868

     occupation numbers
     1.0000   1.0000   1.0000   1.0000   1.0000   1.0000   1.0000   1.0000
     1.0000   1.0000   1.0000   1.0000   1.0000   1.0000   1.0000   1.0000
     1.0000   1.0000   1.0000   1.0000   1.0000   1.0000   1.0000   1.0000
     1.0000   1.0000   1.0000   1.0000   1.0000   1.0000   1.0000   1.0000
     1.0000   1.0000   1.0000   1.0000   1.0000   1.0000   1.0000   1.0000
     1.0000   1.0000   1.0000   1.0000   1.0000   1.0000   1.0000   1.0000
     1.0000   1.0000   1.0000   1.0000   1.0000   1.0000   1.0000   1.0000
     1.0000   1.0000   1.0000   1.0000   1.0000   1.0000   1.0000   1.0000
     1.0000   1.0000   1.0000   1.0000   1.0000   1.0000   1.0000   1.0000
     1.0000   1.0000   1.0000   1.0000   1.0000   1.0000   1.0000   1.0000
     1.0000   1.0000   1.0000   1.0000   1.0000   1.0000   1.0000   1.0000
     1.0000   1.0000   1.0000   1.0000   1.0000   1.0000   1.0000   1.0000
     1.0000   1.0000   1.0000   1.0000   1.0000   1.0000   1.0000   1.0000
     1.0000   1.0000   1.0000   1.0000   1.0000   1.0000   1.0000   1.0000
     1.0000   1.0000   1.0000   1.0000   1.0000   1.0000   1.0000   1.0000
     1.0000   1.0000   1.0000   1.0000   1.0000   1.0000   1.0000   1.0000
     1.0000   1.0000   1.0000   1.0000   1.0000   1.0000   1.0000   1.0000
     1.0000   1.0000   1.0000   1.0000   1.0000   1.0000   1.0000   1.0000
     1.0000   1.0000   1.0000   1.0000   1.0000   1.0000   1.0000   1.0000
     1.0000   1.0000   1.0000   1.0000   1.0000   1.0000   1.0000   1.0000
     1.0000   1.0000   1.0000   1.0000   1.0000   1.0000   1.0000   1.0000
     1.0000   1.0000   1.0000   1.0000   1.0000   1.0000   1.0000   1.0000
     1.0000   1.0000   1.0000   1.0000   1.0000   1.0000   1.0000   1.0000
     1.0000   1.0000   1.0000   1.0000   1.0000   1.0000   1.0000   1.0000
     1.0000   1.0000   1.0000   1.0000   1.0000   1.0000   1.0000   1.0000
     1.0000   1.0000   1.0000   1.0000   1.0000   1.0000   1.0000   1.0000
     1.0000   1.0000   1.0000   1.0000   1.0000   1.0000   1.0000   1.0000
     1.0000   1.0000   1.0000   1.0000   1.0000   1.0000   1.0000   1.0000
     1.0000   1.0000   1.0000   1.0000   1.0000   1.0000   1.0000   1.0000
     1.0000   1.0000   1.0000   1.0000   1.0000   1.0000   1.0000   1.0000
     1.0000   1.0000   1.0000   1.0000   1.0000   1.0000   1.0000   1.0000
     1.0000   1.0000   1.0000   1.0000   1.0000   1.0000   1.0000   1.0000
     1.0000   1.0000   1.0000   1.0000   1.0000   1.0000   1.0000   1.0000
     1.0000   1.0000   1.0000   1.0000   1.0000   1.0000   1.0000   1.0000
     1.0000   1.0000   1.0000   1.0000   1.0000   1.0000   1.0000   1.0000
     1.0000   1.0000   1.0000   1.0000   1.0000   1.0000   1.0000   1.0000
     0.0000   0.0000   0.0000   0.0000   0.0000   0.0000   0.0000   0.0000
     0.0000   0.0000   0.0000   0.0000   0.0000   0.0000   0.0000   0.0000
     0.0000   0.0000   0.0000   0.0000   0.0000   0.0000   0.0000   0.0000
     0.0000   0.0000   0.0000   0.0000   0.0000   0.0000   0.0000   0.0000
     0.0000   0.0000   0.0000   0.0000   0.0000   0.0000   0.0000   0.0000
     0.0000   0.0000   0.0000   0.0000   0.0000   0.0000   0.0000   0.0000
     0.0000   0.0000   0.0000   0.0000   0.0000   0.0000   0.0000   0.0000
     0.0000

[...]

          k = 0.2500-0.5000-0.5000 (158052 PWs)   bands (ev):

[...]

          k =-0.5000-0.5000-0.5000 (158408 PWs)   bands (ev):

    -7.0994  -7.0993  -7.0992  -7.0992  -7.0992  -7.0992  -7.0992  -7.0992
    -6.6073  -6.6073  -6.6073  -6.6073  -6.6073  -6.6073  -6.6072  -6.6072
    -6.6071  -6.6071  -6.6071  -6.6071  -6.6071  -6.6071  -6.6071  -6.6071
    -6.6071  -6.6071  -6.6071  -6.6071  -6.6071  -6.6071  -6.6071  -6.6071
    -3.1601  -3.1601  -3.1601  -3.1601  -3.1601  -3.1601  -3.1601  -3.1601
    -3.1601  -3.1601  -3.1601  -3.1600  -3.1600  -3.1600  -3.1600  -3.1600
    -3.1044  -3.1044  -3.1044  -3.1043  -3.1043  -3.1043  -3.1043  -3.1043
    -3.1043  -3.1043  -3.1043  -3.1043  -3.1043  -3.1043  -3.1043  -3.1043
    -3.1043  -3.1042  -3.1042  -3.1042  -3.1042  -3.1042  -3.1042  -3.1041
    -3.0540  -3.0539  -3.0539  -3.0539  -3.0539  -3.0539  -3.0539  -3.0539
    -3.0539  -3.0539  -3.0538  -3.0538  -3.0538  -3.0538  -3.0538  -3.0538
    -3.0538  -3.0538  -3.0537  -3.0537  -3.0537  -3.0537  -3.0537  -3.0537
    -3.0335  -3.0334  -3.0334  -3.0334  -3.0334  -3.0334  -3.0334  -3.0333
    -2.9816  -2.9816  -2.9815  -2.9815  -2.9815  -2.9815  -2.9815  -2.9815
    -2.9815  -2.9815  -2.9815  -2.9815  -2.9815  -2.9815  -2.9814  -2.9814
    -2.9814  -2.9814  -2.9814  -2.9814  -2.9813  -2.9813  -2.9813  -2.9813
    -2.9222  -2.9222  -2.9221  -2.9221  -2.9221  -2.9221  -2.9221  -2.9221
    -2.9220  -2.9220  -2.9219  -2.9219  -2.9219  -2.9219  -2.9219  -2.9219
    -2.8829  -2.8829  -2.8829  -2.8829  -2.8829  -2.8829  -2.8828  -2.8828
    -2.8828  -2.8828  -2.8828  -2.8828  -2.8828  -2.8828  -2.8827  -2.8827
    -2.8827  -2.8827  -2.8827  -2.8827  -2.8827  -2.8825  -2.8825  -2.8825
    -2.5076  -2.5076  -2.5076  -2.5076  -2.5076  -2.5076  -2.5076  -2.5076
    -2.5076  -2.5075  -2.5075  -2.5075  -2.5075  -2.5075  -2.5075  -2.5074
    -2.5074  -2.5074  -2.5074  -2.5074  -2.5074  -2.5074  -2.5074  -2.5074
     0.9958   0.9959   0.9960   0.9960   0.9960   0.9960   0.9960   0.9960
     0.9960   0.9960   0.9960   0.9960   0.9960   0.9960   0.9960   0.9960
     0.9960   0.9960   0.9960   0.9960   0.9960   0.9961   0.9961   0.9961
     2.5325   2.5325   2.5325   2.5325   2.5325   2.5325   2.5325   2.5325
     3.0837   3.0837   3.0837   3.0837   3.0837   3.0837   3.0837   3.0837
     3.0837   3.0837   3.0837   3.0837   3.0837   3.0837   3.0838   3.0838
     3.0838   3.0838   3.0838   3.0838   3.0838   3.0838   3.0838   3.0838
     3.8964   3.8964   3.8964   3.8964   3.8964   3.8964   3.8964   3.8964
     3.8964   3.8964   3.8964   3.8964   3.8964   3.8964   3.8965   3.8965
     3.8965   3.8965   3.8965   3.8965   3.8965   3.8965   3.8965   3.8965
     4.9369   4.9369   4.9369   4.9369   4.9369   4.9369   4.9369   4.9369
     4.9369   4.9369   4.9369   4.9370   4.9370   4.9370   4.9370   4.9370
     8.9677   8.9677   8.9677   8.9677   8.9677   8.9677   8.9677   8.9677
     9.8635   9.8635   9.8635   9.8635   9.8635   9.8636   9.8636   9.8636
     9.8636   9.8636   9.8636   9.8636   9.8636   9.8636   9.8636   9.8636
     9.8636   9.8636   9.8636   9.8636   9.8636   9.8636   9.8636   9.8636
    11.4739  11.4739  11.4739  11.4739  11.4739  11.4739  11.4739  11.4740
    11.4740  11.4740  11.4740  11.4740  11.4740  11.4740  11.4740  11.4740
    11.4740  11.4740  11.4740  11.4740  11.4740  11.4740  11.4740  11.4740
    12.4203

     occupation numbers
     1.0000   1.0000   1.0000   1.0000   1.0000   1.0000   1.0000   1.0000
     1.0000   1.0000   1.0000   1.0000   1.0000   1.0000   1.0000   1.0000
     1.0000   1.0000   1.0000   1.0000   1.0000   1.0000   1.0000   1.0000
     1.0000   1.0000   1.0000   1.0000   1.0000   1.0000   1.0000   1.0000
     1.0000   1.0000   1.0000   1.0000   1.0000   1.0000   1.0000   1.0000
     1.0000   1.0000   1.0000   1.0000   1.0000   1.0000   1.0000   1.0000
     1.0000   1.0000   1.0000   1.0000   1.0000   1.0000   1.0000   1.0000
     1.0000   1.0000   1.0000   1.0000   1.0000   1.0000   1.0000   1.0000
     1.0000   1.0000   1.0000   1.0000   1.0000   1.0000   1.0000   1.0000
     1.0000   1.0000   1.0000   1.0000   1.0000   1.0000   1.0000   1.0000
     1.0000   1.0000   1.0000   1.0000   1.0000   1.0000   1.0000   1.0000
     1.0000   1.0000   1.0000   1.0000   1.0000   1.0000   1.0000   1.0000
     1.0000   1.0000   1.0000   1.0000   1.0000   1.0000   1.0000   1.0000
     1.0000   1.0000   1.0000   1.0000   1.0000   1.0000   1.0000   1.0000
     1.0000   1.0000   1.0000   1.0000   1.0000   1.0000   1.0000   1.0000
     1.0000   1.0000   1.0000   1.0000   1.0000   1.0000   1.0000   1.0000
     1.0000   1.0000   1.0000   1.0000   1.0000   1.0000   1.0000   1.0000
     1.0000   1.0000   1.0000   1.0000   1.0000   1.0000   1.0000   1.0000
     1.0000   1.0000   1.0000   1.0000   1.0000   1.0000   1.0000   1.0000
     1.0000   1.0000   1.0000   1.0000   1.0000   1.0000   1.0000   1.0000
     1.0000   1.0000   1.0000   1.0000   1.0000   1.0000   1.0000   1.0000
     1.0000   1.0000   1.0000   1.0000   1.0000   1.0000   1.0000   1.0000
     1.0000   1.0000   1.0000   1.0000   1.0000   1.0000   1.0000   1.0000
     1.0000   1.0000   1.0000   1.0000   1.0000   1.0000   1.0000   1.0000
     1.0000   1.0000   1.0000   1.0000   1.0000   1.0000   1.0000   1.0000
     1.0000   1.0000   1.0000   1.0000   1.0000   1.0000   1.0000   1.0000
     1.0000   1.0000   1.0000   1.0000   1.0000   1.0000   1.0000   1.0000
     1.0000   1.0000   1.0000   1.0000   1.0000   1.0000   1.0000   1.0000
     1.0000   1.0000   1.0000   1.0000   1.0000   1.0000   1.0000   1.0000
     1.0000   1.0000   1.0000   1.0000   1.0000   1.0000   1.0000   1.0000
     1.0000   1.0000   1.0000   1.0000   1.0000   1.0000   1.0000   1.0000
     1.0000   1.0000   1.0000   1.0000   1.0000   1.0000   1.0000   1.0000
     1.0000   1.0000   1.0000   1.0000   1.0000   1.0000   1.0000   1.0000
     1.0000   1.0000   1.0000   1.0000   1.0000   1.0000   1.0000   1.0000
     1.0000   1.0000   1.0000   1.0000   1.0000   1.0000   1.0000   1.0000
     1.0000   1.0000   1.0000   1.0000   1.0000   1.0000   1.0000   1.0000
     0.0000   0.0000   0.0000   0.0000   0.0000   0.0000   0.0000   0.0000
     0.0000   0.0000   0.0000   0.0000   0.0000   0.0000   0.0000   0.0000
     0.0000   0.0000   0.0000   0.0000   0.0000   0.0000   0.0000   0.0000
     0.0000   0.0000   0.0000   0.0000   0.0000   0.0000   0.0000   0.0000
     0.0000   0.0000   0.0000   0.0000   0.0000   0.0000   0.0000   0.0000
     0.0000   0.0000   0.0000   0.0000   0.0000   0.0000   0.0000   0.0000
     0.0000   0.0000   0.0000   0.0000   0.0000   0.0000   0.0000   0.0000
     0.0000

     highest occupied, lowest unoccupied level (ev):     5.3690    7.5799

!    total energy              =   -9924.09912631 Ry
     total all-electron energy =   -140500.039714 Ry
     estimated scf accuracy    <       0.00000039 Ry

     The total energy is the sum of the following terms:
     one-electron contribution =   -2759.03880794 Ry
     hartree contribution      =    1967.43960785 Ry
     xc contribution           =   -1675.89167348 Ry
     ewald contribution        =   -2927.19912172 Ry
     Hubbard energy            =       0.23990911 Ry
     one-center paw contrib.   =   -4529.64904013 Ry
      -> PAW hartree energy AE =     123.72005050 Ry
      -> PAW hartree energy PS =    -123.07351869 Ry
      -> PAW xc energy AE      =    -143.26101794 Ry
      -> PAW xc energy PS      =      47.19794012 Ry
      -> total E_H with PAW    =    1968.08613966 Ry
      -> total E_XC with PAW   =   -1771.95475130 Ry

     convergence has been achieved in   9 iterations

     Writing all to output data dir ./out/ZnS_hub.save/

     General routines

     Parallel routines

     Hubbard U routines

     PAW routines

   This run was terminated on:  11:28: 7   1Jul2024

   JOB DONE.