     Program PWSCF v.7.2 starts on  5Jul2024 at  1:26:46

     Reading input from 1.Cu_in_ZnS.scf.qn1.unrlxd.in

     Current dimensions of program PWSCF are:
     Max number of different atomic species (ntypx) = 10
     Max number of k-points (npk) =  40000
     Max angular momentum in pseudopotentials (lmaxx) =  4
     file S.pbe-n-kjpaw_psl.1.0.0.UPF: wavefunction(s)  3S 3P renormalized
     file Zn.pbe-dnl-kjpaw_psl.1.0.0.UPF: wavefunction(s)  4S 3D renormalized
     file Cu.pbe-spn-kjpaw_psl.1.0.0.UPF: wavefunction(s)  4S 3P 3D renormalized

     K-points division:     npool     =      10
     R & G space division:  proc/nbgrp/npool/nimage =     112
     Subspace diagonalization in iterative solution of the eigenvalue problem:
     one sub-group per band group will be used

     Using Slab Decomposition

     bravais-lattice index     =            1
     lattice parameter (alat)  =      20.5686  a.u.
     unit-cell volume          =    8701.8437 (a.u.)^3
     number of atoms/cell      =           64
     number of atomic types    =            3
     number of electrons       =       584.00
     number of Kohn-Sham states=          350
     kinetic-energy cutoff     =     150.0000  Ry
     charge density cutoff     =     600.0000  Ry
     scf convergence threshold =      1.0E-08
     mixing beta               =       0.7000
     number of iterations used =            8  plain     mixing
     Exchange-correlation= SLA  PW   PBX  PBC
                           (   1   4   3   4   0   0   0)

     celldm(1)=  20.568554  celldm(2)=   0.000000  celldm(3)=   0.000000
     celldm(4)=   0.000000  celldm(5)=   0.000000  celldm(6)=   0.000000

     crystal axes: (cart. coord. in units of alat)
               a(1) = (   1.000000   0.000000   0.000000 )
               a(2) = (   0.000000   1.000000   0.000000 )
               a(3) = (   0.000000   0.000000   1.000000 )

     reciprocal axes: (cart. coord. in units 2 pi/alat)
               b(1) = (  1.000000  0.000000  0.000000 )
               b(2) = (  0.000000  1.000000  0.000000 )
               b(3) = (  0.000000  0.000000  1.000000 )

     PseudoPot. # 1 for S  read from file:
     /arf/home/amuhaymin/pseudo/S.pbe-n-kjpaw_psl.1.0.0.UPF
     MD5 check sum: fb45dfebcf3e72a4e1bd4a866ec2e262
     Pseudo is Projector augmented-wave + core cor, Zval =  6.0
     Generated using &quot;atomic&quot; code by A. Dal Corso  v.6.3
     Shape of augmentation charge: PSQ
     Using radial grid of 1151 points,  6 beta functions with:
                l(1) =   0
                l(2) =   0
                l(3) =   1
                l(4) =   1
                l(5) =   2
                l(6) =   2
     Q(r) pseudized with 0 coefficients

     PseudoPot. # 2 for Zn read from file:
     /arf/home/amuhaymin/pseudo/Zn.pbe-dnl-kjpaw_psl.1.0.0.UPF
     MD5 check sum: c608214d9520ac179f507641260889e3
     Pseudo is Projector augmented-wave + core cor, Zval = 12.0
     Generated using &quot;atomic&quot; code by A. Dal Corso  v.6.2.2
     Shape of augmentation charge: PSQ
     Using radial grid of 1201 points,  6 beta functions with:
                l(1) =   0
                l(2) =   0
                l(3) =   1
                l(4) =   1
                l(5) =   2
                l(6) =   2
     Q(r) pseudized with 0 coefficients

     PseudoPot. # 3 for Cu read from file:
     /arf/home/amuhaymin/pseudo/Cu.pbe-spn-kjpaw_psl.1.0.0.UPF
     MD5 check sum: e7cbaad2f97193e5fe23251a619a52b0
     Pseudo is Projector augmented-wave + core cor, Zval = 19.0
     Generated using &quot;atomic&quot; code by A. Dal Corso  v.6.3
     Shape of augmentation charge: PSQ
     Using radial grid of 1199 points,  6 beta functions with:
                l(1) =   0
                l(2) =   0
                l(3) =   1
                l(4) =   1
                l(5) =   2
                l(6) =   2
     Q(r) pseudized with 0 coefficients

     atomic species   valence    mass     pseudopotential
        S              6.00    32.06500     S ( 1.00)
        Zn            12.00    65.38000     Zn( 1.00)
        Cu            19.00    63.54600     Cu( 1.00)

     Starting magnetic structure
     atomic species   magnetization
        S            0.000
        Zn           0.000
        Cu           0.000

     24 Sym. Ops. (no inversion) found

                                    s                        frac. trans.

      isym =  1     identity

 cryst.   s( 1) = (     1          0          0      )
                  (     0          1          0      )
                  (     0          0          1      )

 cart.    s( 1) = (  1.0000000  0.0000000  0.0000000 )
                  (  0.0000000  1.0000000  0.0000000 )
                  (  0.0000000  0.0000000  1.0000000 )

      isym =  2     180 deg rotation - cart. axis [0,0,1]

[...]

 cryst.   s( 9) = (     0          1          0      )
                  (     0          0          1      )
                  (     1          0          0      )

 cart.    s( 9) = (  0.0000000  0.0000000  1.0000000 )
                  (  1.0000000  0.0000000  0.0000000 )
                  (  0.0000000  1.0000000  0.0000000 )

[...]

 cryst.   s(10) = (     0         -1          0      )
                  (     0          0         -1      )
                  (     1          0          0      )

 cart.    s(10) = (  0.0000000  0.0000000  1.0000000 )
                  ( -1.0000000  0.0000000  0.0000000 )
                  (  0.0000000 -1.0000000  0.0000000 )

[...]

      isym = 12     120 deg rotation - cart. axis [-1,-1,1]

[...]

      isym = 13     inv. 180 deg rotation - cart. axis [1,1,0]

[...]

      isym = 24     inv.  90 deg rotation - cart. axis [1,0,0]

 cryst.   s(24) = (    -1          0          0      )
                  (     0          0         -1      )
                  (     0          1          0      )

 cart.    s(24) = ( -1.0000000  0.0000000  0.0000000 )
                  (  0.0000000  0.0000000  1.0000000 )
                  (  0.0000000 -1.0000000  0.0000000 )

     point group T_d (-43m)
     there are  5 classes
     the character table:

       E     8C3   3C2   6S4   6s_d
A_1    1.00  1.00  1.00  1.00  1.00
A_2    1.00  1.00  1.00 -1.00 -1.00
E      2.00 -1.00  2.00  0.00  0.00
T_1    3.00  0.00 -1.00  1.00 -1.00
T_2    3.00  0.00 -1.00 -1.00  1.00

     the symmetry operations in each class and the name of the first element:

     E        1
          identity
     8C3      5    7    8    6   12    9   10   11
          120 deg rotation - cart. axis [-1,-1,-1]
     3C2      2    3    4
          180 deg rotation - cart. axis [0,0,1]
     6S4     15   16   20   19   23   24
          inv.  90 deg rotation - cart. axis [0,0,-1]
     6s_d    13   14   17   18   21   22
          inv. 180 deg rotation - cart. axis [1,1,0]

   Cartesian axes

     site n.     atom                  positions (alat units)
         1           Zn  tau(   1) = (   0.0000000   0.0000000   0.0000000  )
         2           Zn  tau(   2) = (   0.0000000   0.2500000   0.2500000  )
         3           Zn  tau(   3) = (   0.2500000   0.0000000   0.2500000  )
         4           Zn  tau(   4) = (   0.2500000   0.2500000   0.0000000  )
         5           S   tau(   5) = (   0.1250000   0.3750000   0.3750000  )
         6           S   tau(   6) = (   0.1250000   0.1250000   0.1250000  )
         7           S   tau(   7) = (   0.3750000   0.3750000   0.1250000  )
         8           S   tau(   8) = (   0.3750000   0.1250000   0.3750000  )
         9           Zn  tau(   9) = (   0.0000000   0.0000000   0.5000000  )
        10           Zn  tau(  10) = (   0.0000000   0.2500000   0.7500000  )
        11           Zn  tau(  11) = (   0.2500000   0.0000000   0.7500000  )
        12           Zn  tau(  12) = (   0.2500000   0.2500000   0.5000000  )
        13           S   tau(  13) = (   0.1250000   0.3750000   0.8750000  )
        14           S   tau(  14) = (   0.1250000   0.1250000   0.6250000  )
        15           S   tau(  15) = (   0.3750000   0.3750000   0.6250000  )
        16           S   tau(  16) = (   0.3750000   0.1250000   0.8750000  )
        17           Zn  tau(  17) = (   0.0000000   0.5000000   0.0000000  )
        18           Zn  tau(  18) = (   0.0000000   0.7500000   0.2500000  )
        19           Zn  tau(  19) = (   0.2500000   0.5000000   0.2500000  )
        20           Zn  tau(  20) = (   0.2500000   0.7500000   0.0000000  )
        21           S   tau(  21) = (   0.1250000   0.8750000   0.3750000  )
        22           S   tau(  22) = (   0.1250000   0.6250000   0.1250000  )
        23           S   tau(  23) = (   0.3750000   0.8750000   0.1250000  )
        24           S   tau(  24) = (   0.3750000   0.6250000   0.3750000  )
        25           Zn  tau(  25) = (   0.0000000   0.5000000   0.5000000  )
        26           Zn  tau(  26) = (   0.0000000   0.7500000   0.7500000  )
        27           Zn  tau(  27) = (   0.2500000   0.5000000   0.7500000  )
        28           Zn  tau(  28) = (   0.2500000   0.7500000   0.5000000  )
        29           S   tau(  29) = (   0.1250000   0.8750000   0.8750000  )
        30           S   tau(  30) = (   0.1250000   0.6250000   0.6250000  )
        31           S   tau(  31) = (   0.3750000   0.8750000   0.6250000  )
        32           S   tau(  32) = (   0.3750000   0.6250000   0.8750000  )
        33           Zn  tau(  33) = (   0.5000000   0.0000000   0.0000000  )
        34           Zn  tau(  34) = (   0.5000000   0.2500000   0.2500000  )
        35           Zn  tau(  35) = (   0.7500000   0.0000000   0.2500000  )
        36           Zn  tau(  36) = (   0.7500000   0.2500000   0.0000000  )
        37           S   tau(  37) = (   0.6250000   0.3750000   0.3750000  )
        38           S   tau(  38) = (   0.6250000   0.1250000   0.1250000  )
        39           S   tau(  39) = (   0.8750000   0.3750000   0.1250000  )
        40           S   tau(  40) = (   0.8750000   0.1250000   0.3750000  )
        41           Zn  tau(  41) = (   0.5000000   0.0000000   0.5000000  )
        42           Zn  tau(  42) = (   0.5000000   0.2500000   0.7500000  )
        43           Zn  tau(  43) = (   0.7500000   0.0000000   0.7500000  )
        44           Zn  tau(  44) = (   0.7500000   0.2500000   0.5000000  )
        45           S   tau(  45) = (   0.6250000   0.3750000   0.8750000  )
        46           S   tau(  46) = (   0.6250000   0.1250000   0.6250000  )
        47           S   tau(  47) = (   0.8750000   0.3750000   0.6250000  )
        48           S   tau(  48) = (   0.8750000   0.1250000   0.8750000  )
        49           Zn  tau(  49) = (   0.5000000   0.5000000   0.0000000  )
        50           Zn  tau(  50) = (   0.5000000   0.7500000   0.2500000  )
        51           Zn  tau(  51) = (   0.7500000   0.5000000   0.2500000  )
        52           Zn  tau(  52) = (   0.7500000   0.7500000   0.0000000  )
        53           S   tau(  53) = (   0.6250000   0.8750000   0.3750000  )
        54           S   tau(  54) = (   0.6250000   0.6250000   0.1250000  )
        55           S   tau(  55) = (   0.8750000   0.8750000   0.1250000  )
[...]
     atom  31 (R=0.089)  charge=  3.9983  magn=  0.0000
     atom  32 (R=0.089)  charge=  3.9983  magn=  0.0000
     atom  33 (R=0.089)  charge= 10.1649  magn=  0.0000
     atom  34 (R=0.089)  charge= 10.1636  magn= -0.0000
     atom  35 (R=0.089)  charge= 10.1633  magn=  0.0000
     atom  36 (R=0.089)  charge= 10.1633  magn=  0.0000
     atom  37 (R=0.089)  charge=  3.9827  magn=  0.0000
     atom  38 (R=0.089)  charge=  3.9994  magn= -0.0000
     atom  39 (R=0.089)  charge=  3.9994  magn= -0.0000
     atom  40 (R=0.089)  charge=  3.9994  magn= -0.0000
     atom  41 (R=0.089)  charge= 10.1626  magn= -0.0000
     atom  42 (R=0.089)  charge= 10.1636  magn= -0.0000
     atom  43 (R=0.089)  charge= 10.1633  magn=  0.0000
     atom  44 (R=0.089)  charge= 10.1636  magn= -0.0000
     atom  45 (R=0.089)  charge=  3.9983  magn=  0.0000
     atom  46 (R=0.089)  charge=  3.9983  magn=  0.0000
     atom  47 (R=0.089)  charge=  3.9983  magn=  0.0000
     atom  48 (R=0.089)  charge=  3.9990  magn= -0.0000
     atom  49 (R=0.089)  charge= 10.1626  magn= -0.0000
     atom  50 (R=0.089)  charge= 10.1636  magn= -0.0000
     atom  51 (R=0.089)  charge= 10.1636  magn= -0.0000
     atom  52 (R=0.089)  charge= 10.1633  magn=  0.0000
     atom  53 (R=0.089)  charge=  3.9983  magn=  0.0000
     atom  54 (R=0.089)  charge=  3.9983  magn=  0.0000
     atom  55 (R=0.089)  charge=  3.9990  magn= -0.0000
     atom  56 (R=0.089)  charge=  3.9983  magn=  0.0000
     atom  57 (R=0.089)  charge= 17.4008  magn=  0.0000
     atom  58 (R=0.089)  charge= 10.1636  magn= -0.0000
     atom  59 (R=0.089)  charge= 10.1636  magn= -0.0000
     atom  60 (R=0.089)  charge= 10.1636  magn= -0.0000
     atom  61 (R=0.089)  charge=  3.9994  magn= -0.0000
     atom  62 (R=0.089)  charge=  3.9827  magn=  0.0000
     atom  63 (R=0.089)  charge=  3.9994  magn= -0.0000
     atom  64 (R=0.089)  charge=  3.9994  magn= -0.0000

     End of self-consistent calculation

 ------ SPIN UP ------------

          k = 0.0000 0.0000 0.0000 (269825 PWs)   bands (ev):

  -104.1422 -61.5460 -61.5460 -61.5460  -7.4850  -6.9659  -6.9659  -6.9528
    -6.9528  -6.9528  -6.9063  -6.6681  -6.6681  -6.6681  -6.6536  -6.6411
    -6.6411  -6.6409  -6.6409  -6.6409  -6.6385  -6.6385  -6.6385  -6.4925
    -6.4925  -6.4925  -6.3443  -6.3443  -6.3443  -6.3101  -6.3101  -6.3101
    -6.1337  -5.8974  -5.8974  -5.8974  -0.7776  -0.7776  -0.7776  -0.7713
    -0.7713  -0.7645  -0.7211  -0.7211  -0.7004  -0.7004  -0.7004  -0.6942
    -0.6571  -0.6571  -0.6571  -0.6508  -0.6508  -0.6374  -0.6374  -0.6374
    -0.6324  -0.6324  -0.6324  -0.6120  -0.6120  -0.6120  -0.6104  -0.6019
    -0.6019  -0.6019  -0.5854  -0.5854  -0.5845  -0.5845  -0.5845  -0.5798
    -0.5798  -0.5798  -0.5755  -0.5707  -0.5707  -0.5707  -0.5676  -0.5676
    -0.5676  -0.5362  -0.5362  -0.5362  -0.5289  -0.5289  -0.5231  -0.5190
    -0.5190  -0.5190  -0.4631  -0.4631  -0.4631  -0.4543  -0.4543  -0.4543
    -0.4463  -0.4463  -0.4377  -0.4377  -0.4377  -0.4192  -0.4192  -0.4192
    -0.4033  -0.4033  -0.4033  -0.3928  -0.3928  -0.3814  -0.3814  -0.3814
    -0.3787  -0.3570  -0.3570  -0.3570  -0.3314  -0.3314  -0.3138  -0.3138
    -0.3138  -0.3126  -0.3126  -0.3126  -0.3017  -0.3017  -0.3017  -0.2943
    -0.2943  -0.2819  -0.2645  -0.2645  -0.2645  -0.2633  -0.2630  -0.2630
    -0.2630  -0.2546  -0.2546  -0.2498  -0.2498  -0.2340  -0.2340  -0.2340
    -0.2314  -0.2313  -0.2313  -0.2263  -0.2256  -0.2256  -0.2256  -0.2243
    -0.1790  -0.1790  -0.1700  -0.1655  -0.1655  -0.1655  -0.1491  -0.1491
    -0.1380  -0.1380  -0.1380  -0.1121  -0.1121  -0.1121  -0.1100  -0.1100
    -0.1100  -0.1090  -0.1090  -0.1090  -0.0998  -0.0998  -0.0762  -0.0754
    -0.0754  -0.0754  -0.0198  -0.0198  -0.0198  -0.0038  -0.0038  -0.0038
     0.0189   0.1460   0.1460   0.1460   0.1766   0.1766   0.1766   0.3803
     0.3803   0.3803   0.4066   0.9787   0.9887   0.9887   1.0402   1.0402
     1.0402   1.0667   1.0667   1.2682   1.5853   1.5853   1.5853   1.6243
     1.6243   1.6552   1.6552   1.6552   1.6756   1.6756   1.6756   2.1180
     2.8595   2.8595   2.8595   2.8672   2.8681   2.8681   2.8697   2.8697
     2.8697   2.8852   2.8852   2.8852   2.9360   2.9360   2.9360   2.9704
     2.9704   3.0579   3.0610   3.0610   3.0610   3.0834   3.0834   3.0834
     3.0919   3.0919   3.1955   3.1955   3.1955   3.3831   3.4003   3.4003
     3.4003   3.4560   3.4560   3.4560   4.1696   4.1696   4.1696   4.3118
     4.3118   4.3118   4.3371   4.3371   4.3371   4.4109   4.4109   4.4109
     4.5347   4.5347   4.5347   4.5922   4.5922   4.6122   4.6122   4.6122
     4.6192   4.6192   4.6192   4.6283   4.6370   4.6370   4.6370   4.6541
     4.6541   4.8236   4.8236   4.8236   5.4133   5.4133   5.4133   5.8662
     5.8662   6.5028   6.5028   6.5028   7.5643   8.7911   8.7911   8.7911
     8.8413   9.0017   9.0017   9.0017   9.6010   9.6010   9.6101   9.9594
     9.9594   9.9685   9.9685   9.9685  10.0024  10.0935  10.0935  10.0935
    10.0987  10.0987  10.1147  10.2828  10.2828  10.2947  10.2947  10.2947
    10.3077  10.3077  10.3077  10.3654  10.3654  10.3654  10.7891  11.2031
    11.2031  11.2031  11.2815  11.2815  11.2815  11.4495  11.4495  11.4685
    11.4685  11.4685  11.8487  11.9296  11.9296  11.9296  12.1443  12.1443
    12.1443  12.1590  12.1590  12.1604  12.1604  12.1605

     occupation numbers
     1.0000   1.0000   1.0000   1.0000   1.0000   1.0000   1.0000   1.0000
     1.0000   1.0000   1.0000   1.0000   1.0000   1.0000   1.0000   1.0000
     1.0000   1.0000   1.0000   1.0000   1.0000   1.0000   1.0000   1.0000
     1.0000   1.0000   1.0000   1.0000   1.0000   1.0000   1.0000   1.0000
     1.0000   1.0000   1.0000   1.0000   1.0000   1.0000   1.0000   1.0000
     1.0000   1.0000   1.0000   1.0000   1.0000   1.0000   1.0000   1.0000
     1.0000   1.0000   1.0000   1.0000   1.0000   1.0000   1.0000   1.0000
     1.0000   1.0000   1.0000   1.0000   1.0000   1.0000   1.0000   1.0000
     1.0000   1.0000   1.0000   1.0000   1.0000   1.0000   1.0000   1.0000
     1.0000   1.0000   1.0000   1.0000   1.0000   1.0000   1.0000   1.0000
     1.0000   1.0000   1.0000   1.0000   1.0000   1.0000   1.0000   1.0000
     1.0000   1.0000   1.0000   1.0000   1.0000   1.0000   1.0000   1.0000
     1.0000   1.0000   1.0000   1.0000   1.0000   1.0000   1.0000   1.0000
     1.0000   1.0000   1.0000   1.0000   1.0000   1.0000   1.0000   1.0000
     1.0000   1.0000   1.0000   1.0000   1.0000   1.0000   1.0000   1.0000
     1.0000   1.0000   1.0000   1.0000   1.0000   1.0000   1.0000   1.0000
     1.0000   1.0000   1.0000   1.0000   1.0000   1.0000   1.0000   1.0000
     1.0000   1.0000   1.0000   1.0000   1.0000   1.0000   1.0000   1.0000
     1.0000   1.0000   1.0000   1.0000   1.0000   1.0000   1.0000   1.0000
     1.0000   1.0000   1.0000   1.0000   1.0000   1.0000   1.0000   1.0000
     1.0000   1.0000   1.0000   1.0000   1.0000   1.0000   1.0000   1.0000
     1.0000   1.0000   1.0000   1.0000   1.0000   1.0000   1.0000   1.0000
     1.0000   1.0000   1.0000   1.0000   1.0000   1.0000   1.0000   1.0000
     1.0000   1.0000   1.0000   1.0000   1.0000   1.0000   1.0000   1.0000
     1.0000   1.0000   1.0000   1.0000   1.0000   1.0000   1.0000   1.0000
     1.0000   1.0000   1.0000   1.0000   1.0000   1.0000   1.0000   1.0000
     1.0000   1.0000   1.0000   1.0000   1.0000   1.0000   1.0000   1.0000
     1.0000   1.0000   1.0000   1.0000   1.0000   1.0000   1.0000   1.0000
     1.0000   1.0000   1.0000   1.0000   1.0000   1.0000   1.0000   1.0000
     1.0000   1.0000   1.0000   1.0000   1.0000   1.0000   1.0000   1.0000
     1.0000   1.0000   1.0000   1.0000   1.0000   1.0000   1.0000   1.0000
     1.0000   1.0000   1.0000   1.0000   1.0000   1.0000   1.0000   1.0000
     1.0000   1.0000   1.0000   1.0000   1.0000   1.0000   1.0000   1.0000
     1.0000   1.0000   1.0000   1.0000   1.0000   1.0000   1.0000   1.0000
     1.0000   1.0000   1.0000   1.0000   1.0000   1.0000   1.0000   1.0000
     1.0000   1.0000   1.0000   1.0000   1.0000   1.0000   1.0000   1.0000
     1.0000   1.0000   1.0000   1.0000   0.0000   0.0000   0.0000   0.0000
     0.0000   0.0000   0.0000   0.0000   0.0000   0.0000   0.0000   0.0000
     0.0000   0.0000   0.0000   0.0000   0.0000   0.0000   0.0000   0.0000
     0.0000   0.0000   0.0000   0.0000   0.0000   0.0000   0.0000   0.0000
     0.0000   0.0000   0.0000   0.0000   0.0000   0.0000   0.0000   0.0000
     0.0000   0.0000   0.0000   0.0000   0.0000   0.0000   0.0000   0.0000
     0.0000   0.0000   0.0000   0.0000   0.0000   0.0000   0.0000   0.0000
     0.0000   0.0000   0.0000   0.0000   0.0000   0.0000

[...]

          k =-0.5000-0.5000-0.5000 (269968 PWs)   bands (ev):

[...]

 ------ SPIN DOWN ----------

[...]

          k = 0.2500-0.5000-0.5000 (269956 PWs)   bands (ev):

[...]

          k =-0.5000-0.5000-0.5000 (269968 PWs)   bands (ev):

  -104.1422 -61.5460 -61.5460 -61.5460  -7.1672  -7.1171  -7.1171  -7.1171
    -7.0608  -7.0608  -7.0608  -6.8513  -6.5577  -6.5577  -6.5577  -6.5139
    -6.4879  -6.4879  -6.4873  -6.4873  -6.4873  -6.4833  -6.4833  -6.4833
    -6.4703  -6.4703  -6.4703  -6.4669  -6.4669  -6.4669  -6.4647  -6.4647
    -6.0704  -5.9294  -5.9294  -5.9294  -0.7331  -0.7331  -0.7331  -0.7056
    -0.7056  -0.6881  -0.6791  -0.6791  -0.6791  -0.6762  -0.6760  -0.6760
    -0.6760  -0.6649  -0.6649  -0.6649  -0.6634  -0.6634  -0.6634  -0.6588
    -0.6588  -0.6557  -0.6557  -0.6557  -0.6367  -0.6367  -0.6367  -0.6357
    -0.6282  -0.6282  -0.6154  -0.6154  -0.6154  -0.6114  -0.6114  -0.6114
    -0.6036  -0.6036  -0.6036  -0.6006  -0.6006  -0.6006  -0.5507  -0.5401
    -0.5401  -0.5399  -0.5129  -0.5129  -0.5129  -0.5070  -0.5070  -0.5070
    -0.4961  -0.4961  -0.4961  -0.4938  -0.4938  -0.4922  -0.4922  -0.4922
    -0.4654  -0.4654  -0.4654  -0.4322  -0.4322  -0.4322  -0.4214  -0.4214
    -0.4083  -0.3974  -0.3974  -0.3974  -0.3690  -0.3690  -0.3690  -0.3582
    -0.3582  -0.3582  -0.3552  -0.3552  -0.3510  -0.3510  -0.3510  -0.3463
    -0.3431  -0.3431  -0.3431  -0.3272  -0.3272  -0.3272  -0.2998  -0.2998
    -0.2796  -0.2760  -0.2760  -0.2666  -0.2666  -0.2666  -0.2538  -0.2538
    -0.2457  -0.2457  -0.2457  -0.2431  -0.2431  -0.2431  -0.2254  -0.2254
    -0.2254  -0.2193  -0.2037  -0.2037  -0.2037  -0.1801  -0.1801  -0.1801
    -0.1673  -0.1673  -0.1673  -0.1403  -0.1403  -0.1403  -0.1202  -0.1202
    -0.1202  -0.0964  -0.0964  -0.0918  -0.0907  -0.0907  -0.0907  -0.0839
    -0.0839  -0.0839  -0.0815  -0.0702  -0.0702  -0.0702  -0.0582  -0.0582
    -0.0498  -0.0498  -0.0498  -0.0319  -0.0319  -0.0306  -0.0306  -0.0306
    -0.0111  -0.0111  -0.0111  -0.0071  -0.0071  -0.0071   0.0510   1.0600
     1.0748   1.0748   1.0748   1.0928   1.0928   1.0928   1.0955   1.0955
     1.0991   1.0991   1.0991   1.1187   1.1187   1.1187   1.1616   1.1616
     1.2050   1.2050   1.2050   1.2539   1.2539   1.2539   1.8459   2.6931
     2.6931   2.6931   2.7074   2.7444   2.7444   2.7444   2.9168   3.1354
     3.1354   3.1354   3.1451   3.1451   3.1451   3.1455   3.1455   3.1614
     3.1728   3.1728   3.1728   3.1936   3.1936   3.1936   3.2211   3.2211
     3.2211   3.2291   3.2291   3.3529   3.3529   3.3529   3.4879   3.8895
     3.8895   3.8895   3.9282   3.9282   3.9282   3.9330   3.9442   3.9442
     3.9497   3.9497   3.9497   3.9755   3.9755   3.9761   3.9761   3.9761
     3.9865   4.0892   4.0892   4.0892   4.1500   4.1500   4.1500   4.7990
     4.7990   4.7990   5.0122   5.0122   5.0426   5.0426   5.0440   5.0440
     5.0440   5.0579   5.0579   5.0579   5.1197   5.1197   5.1197   5.8642
     5.8642   6.4977   6.4977   6.4977   8.8729   8.9158   8.9158   8.9158
     8.9339   8.9339   8.9339   9.1547   9.7786   9.7786   9.7786   9.7952
     9.7952   9.7952   9.8034   9.8034   9.8083   9.8092   9.8092   9.8092
     9.8500   9.8500   9.8500   9.8589   9.8589   9.8589   9.9893   9.9893
    10.0374  10.0374  10.0374  10.3089  11.3875  11.3875  11.3875  11.3991
    11.3991  11.3991  11.4069  11.4069  11.4076  11.4149  11.4149  11.4149
    11.4563  11.4563  11.4563  11.4667  11.4667  11.5509  11.5509  11.5509
    11.6437  11.6437  11.6437  12.0721  12.3706  12.3717

     occupation numbers
     1.0000   1.0000   1.0000   1.0000   1.0000   1.0000   1.0000   1.0000
     1.0000   1.0000   1.0000   1.0000   1.0000   1.0000   1.0000   1.0000
     1.0000   1.0000   1.0000   1.0000   1.0000   1.0000   1.0000   1.0000
     1.0000   1.0000   1.0000   1.0000   1.0000   1.0000   1.0000   1.0000
     1.0000   1.0000   1.0000   1.0000   1.0000   1.0000   1.0000   1.0000
     1.0000   1.0000   1.0000   1.0000   1.0000   1.0000   1.0000   1.0000
     1.0000   1.0000   1.0000   1.0000   1.0000   1.0000   1.0000   1.0000
     1.0000   1.0000   1.0000   1.0000   1.0000   1.0000   1.0000   1.0000
     1.0000   1.0000   1.0000   1.0000   1.0000   1.0000   1.0000   1.0000
     1.0000   1.0000   1.0000   1.0000   1.0000   1.0000   1.0000   1.0000
     1.0000   1.0000   1.0000   1.0000   1.0000   1.0000   1.0000   1.0000
     1.0000   1.0000   1.0000   1.0000   1.0000   1.0000   1.0000   1.0000
     1.0000   1.0000   1.0000   1.0000   1.0000   1.0000   1.0000   1.0000
     1.0000   1.0000   1.0000   1.0000   1.0000   1.0000   1.0000   1.0000
     1.0000   1.0000   1.0000   1.0000   1.0000   1.0000   1.0000   1.0000
     1.0000   1.0000   1.0000   1.0000   1.0000   1.0000   1.0000   1.0000
     1.0000   1.0000   1.0000   1.0000   1.0000   1.0000   1.0000   1.0000
     1.0000   1.0000   1.0000   1.0000   1.0000   1.0000   1.0000   1.0000
     1.0000   1.0000   1.0000   1.0000   1.0000   1.0000   1.0000   1.0000
     1.0000   1.0000   1.0000   1.0000   1.0000   1.0000   1.0000   1.0000
     1.0000   1.0000   1.0000   1.0000   1.0000   1.0000   1.0000   1.0000
     1.0000   1.0000   1.0000   1.0000   1.0000   1.0000   1.0000   1.0000
     1.0000   1.0000   1.0000   1.0000   1.0000   1.0000   1.0000   1.0000
     1.0000   1.0000   1.0000   1.0000   1.0000   1.0000   1.0000   1.0000
     1.0000   1.0000   1.0000   1.0000   1.0000   1.0000   1.0000   1.0000
     1.0000   1.0000   1.0000   1.0000   1.0000   1.0000   1.0000   1.0000
     1.0000   1.0000   1.0000   1.0000   1.0000   1.0000   1.0000   1.0000
     1.0000   1.0000   1.0000   1.0000   1.0000   1.0000   1.0000   1.0000
     1.0000   1.0000   1.0000   1.0000   1.0000   1.0000   1.0000   1.0000
     1.0000   1.0000   1.0000   1.0000   1.0000   1.0000   1.0000   1.0000
     1.0000   1.0000   1.0000   1.0000   1.0000   1.0000   1.0000   1.0000
     1.0000   1.0000   1.0000   1.0000   1.0000   1.0000   1.0000   1.0000
     1.0000   1.0000   1.0000   1.0000   1.0000   1.0000   1.0000   1.0000
     1.0000   1.0000   1.0000   1.0000   1.0000   1.0000   1.0000   1.0000
     1.0000   1.0000   1.0000   1.0000   1.0000   1.0000   1.0000   1.0000
     1.0000   1.0000   1.0000   1.0000   1.0000   1.0000   1.0000   1.0000
     1.0000   1.0000   1.0000   1.0000   0.0000   0.0000   0.0000   0.0000
     0.0000   0.0000   0.0000   0.0000   0.0000   0.0000   0.0000   0.0000
     0.0000   0.0000   0.0000   0.0000   0.0000   0.0000   0.0000   0.0000
     0.0000   0.0000   0.0000   0.0000   0.0000   0.0000   0.0000   0.0000
     0.0000   0.0000   0.0000   0.0000   0.0000   0.0000   0.0000   0.0000
     0.0000   0.0000   0.0000   0.0000   0.0000   0.0000   0.0000   0.0000
     0.0000   0.0000   0.0000   0.0000   0.0000   0.0000   0.0000   0.0000
     0.0000   0.0000   0.0000   0.0000   0.0000   0.0000

     the Fermi energy is     7.0334 ev

!    total energy              =  -10166.96504186 Ry
     total all-electron energy =   -140217.595211 Ry
     estimated scf accuracy    <          1.6E-09 Ry
     smearing contrib. (-TS)   =      -0.00000000 Ry
     internal energy E=F+TS    =  -10166.96504186 Ry

     The total energy is F=E-TS. E is the sum of the following terms:
     one-electron contribution =   -3064.03497771 Ry
     hartree contribution      =    2112.15487205 Ry
     xc contribution           =   -1666.53601953 Ry
     ewald contribution        =   -3015.40495684 Ry
     one-center paw contrib.   =   -4533.14395983 Ry
      -> PAW hartree energy AE =     123.39093587 Ry
      -> PAW hartree energy PS =    -122.74942717 Ry
      -> PAW xc energy AE      =    -143.21844797 Ry
      -> PAW xc energy PS      =      47.15686653 Ry
      -> total E_H with PAW    =    2112.79638075 Ry
      -> total E_XC with PAW   =   -1762.59760097 Ry

     total magnetization       =     0.00 Bohr mag/cell
     absolute magnetization    =     0.00 Bohr mag/cell

     convergence has been achieved in  13 iterations

     Writing all to output data dir ./out/Cu_qn1_unrlxd.save/

     General routines

     Parallel routines

     PAW routines

   This run was terminated on:   1:30: 6   5Jul2024

   JOB DONE.