     Program PWSCF v.7.2 starts on  5Jul2024 at 14:45:54

     Reading input from 1.Fe_in_ZnS.scf.qp1.unrlxd.in

     Current dimensions of program PWSCF are:
     Max number of different atomic species (ntypx) = 10
     Max number of k-points (npk) =  40000
     Max angular momentum in pseudopotentials (lmaxx) =  4
     file S.pbe-n-kjpaw_psl.1.0.0.UPF: wavefunction(s)  3S 3P renormalized
     file Zn.pbe-dnl-kjpaw_psl.1.0.0.UPF: wavefunction(s)  4S 3D renormalized
     file Fe.pbe-spn-kjpaw_psl.1.0.0.UPF: wavefunction(s)  3P 3D renormalized

     K-points division:     npool     =       5
     R & G space division:  proc/nbgrp/npool/nimage =     112
     Subspace diagonalization in iterative solution of the eigenvalue problem:
     one sub-group per band group will be used

     Using Slab Decomposition

     bravais-lattice index     =            1
     lattice parameter (alat)  =      20.5686  a.u.
     unit-cell volume          =    8701.8437 (a.u.)^3
     number of atoms/cell      =           64
     number of atomic types    =            3
     number of electrons       =       579.00
     number of Kohn-Sham states=          348
     kinetic-energy cutoff     =     150.0000  Ry
     charge density cutoff     =     600.0000  Ry
     scf convergence threshold =      1.0E-08
     mixing beta               =       0.7000
     number of iterations used =            8  plain     mixing
     Exchange-correlation= SLA  PW   PBX  PBC
                           (   1   4   3   4   0   0   0)

     celldm(1)=  20.568554  celldm(2)=   0.000000  celldm(3)=   0.000000
     celldm(4)=   0.000000  celldm(5)=   0.000000  celldm(6)=   0.000000

     crystal axes: (cart. coord. in units of alat)
               a(1) = (   1.000000   0.000000   0.000000 )
               a(2) = (   0.000000   1.000000   0.000000 )
               a(3) = (   0.000000   0.000000   1.000000 )

     reciprocal axes: (cart. coord. in units 2 pi/alat)
               b(1) = (  1.000000  0.000000  0.000000 )
               b(2) = (  0.000000  1.000000  0.000000 )
               b(3) = (  0.000000  0.000000  1.000000 )

     PseudoPot. # 1 for S  read from file:
     /arf/home/amuhaymin/pseudo/S.pbe-n-kjpaw_psl.1.0.0.UPF
     MD5 check sum: fb45dfebcf3e72a4e1bd4a866ec2e262
     Pseudo is Projector augmented-wave + core cor, Zval =  6.0
     Generated using &quot;atomic&quot; code by A. Dal Corso  v.6.3
     Shape of augmentation charge: PSQ
     Using radial grid of 1151 points,  6 beta functions with:
                l(1) =   0
                l(2) =   0
                l(3) =   1
                l(4) =   1
                l(5) =   2
                l(6) =   2
     Q(r) pseudized with 0 coefficients

     PseudoPot. # 2 for Zn read from file:
     /arf/home/amuhaymin/pseudo/Zn.pbe-dnl-kjpaw_psl.1.0.0.UPF
     MD5 check sum: c608214d9520ac179f507641260889e3
     Pseudo is Projector augmented-wave + core cor, Zval = 12.0
     Generated using &quot;atomic&quot; code by A. Dal Corso  v.6.2.2
     Shape of augmentation charge: PSQ
     Using radial grid of 1201 points,  6 beta functions with:
                l(1) =   0
                l(2) =   0
                l(3) =   1
                l(4) =   1
                l(5) =   2
                l(6) =   2
     Q(r) pseudized with 0 coefficients

     PseudoPot. # 3 for Fe read from file:
     /arf/home/amuhaymin/pseudo/Fe.pbe-spn-kjpaw_psl.1.0.0.UPF
     MD5 check sum: fc81f059e5c5069939230b1155715ae8
     Pseudo is Projector augmented-wave + core cor, Zval = 16.0
     Generated using &quot;atomic&quot; code by A. Dal Corso  v.6.3
     Shape of augmentation charge: PSQ
     Using radial grid of 1191 points,  6 beta functions with:
                l(1) =   0
                l(2) =   0
                l(3) =   1
                l(4) =   1
                l(5) =   2
                l(6) =   2
     Q(r) pseudized with 0 coefficients

     atomic species   valence    mass     pseudopotential
        S              6.00    32.06500     S ( 1.00)
        Zn            12.00    65.38000     Zn( 1.00)
        Fe            16.00    63.54600     Fe( 1.00)

     Starting magnetic structure
     atomic species   magnetization
        S            0.000
        Zn           0.000
        Fe           0.312

     24 Sym. Ops. (no inversion) found

                                    s                        frac. trans.

      isym =  1     identity

 cryst.   s( 1) = (     1          0          0      )
                  (     0          1          0      )
                  (     0          0          1      )

 cart.    s( 1) = (  1.0000000  0.0000000  0.0000000 )
                  (  0.0000000  1.0000000  0.0000000 )
                  (  0.0000000  0.0000000  1.0000000 )

      isym =  2     180 deg rotation - cart. axis [0,0,1]

[...]

 cryst.   s( 9) = (     0          1          0      )
                  (     0          0          1      )
                  (     1          0          0      )

 cart.    s( 9) = (  0.0000000  0.0000000  1.0000000 )
                  (  1.0000000  0.0000000  0.0000000 )
                  (  0.0000000  1.0000000  0.0000000 )

[...]

 cryst.   s(10) = (     0         -1          0      )
                  (     0          0         -1      )
                  (     1          0          0      )

 cart.    s(10) = (  0.0000000  0.0000000  1.0000000 )
                  ( -1.0000000  0.0000000  0.0000000 )
                  (  0.0000000 -1.0000000  0.0000000 )

[...]

      isym = 12     120 deg rotation - cart. axis [-1,-1,1]

[...]

      isym = 13     inv. 180 deg rotation - cart. axis [1,1,0]

[...]

      isym = 24     inv.  90 deg rotation - cart. axis [1,0,0]

 cryst.   s(24) = (    -1          0          0      )
                  (     0          0         -1      )
                  (     0          1          0      )

 cart.    s(24) = ( -1.0000000  0.0000000  0.0000000 )
                  (  0.0000000  0.0000000  1.0000000 )
                  (  0.0000000 -1.0000000  0.0000000 )

     point group T_d (-43m)
     there are  5 classes
     the character table:

       E     8C3   3C2   6S4   6s_d
A_1    1.00  1.00  1.00  1.00  1.00
A_2    1.00  1.00  1.00 -1.00 -1.00
E      2.00 -1.00  2.00  0.00  0.00
T_1    3.00  0.00 -1.00  1.00 -1.00
T_2    3.00  0.00 -1.00 -1.00  1.00

     the symmetry operations in each class and the name of the first element:

     E        1
          identity
     8C3      5    7    8    6   12    9   10   11
          120 deg rotation - cart. axis [-1,-1,-1]
     3C2      2    3    4
          180 deg rotation - cart. axis [0,0,1]
     6S4     15   16   20   19   23   24
          inv.  90 deg rotation - cart. axis [0,0,-1]
     6s_d    13   14   17   18   21   22
          inv. 180 deg rotation - cart. axis [1,1,0]

   Cartesian axes

     site n.     atom                  positions (alat units)
         1           Zn  tau(   1) = (   0.0000000   0.0000000   0.0000000  )
         2           Zn  tau(   2) = (   0.0000000   0.2500000   0.2500000  )
         3           Zn  tau(   3) = (   0.2500000   0.0000000   0.2500000  )
         4           Zn  tau(   4) = (   0.2500000   0.2500000   0.0000000  )
         5           S   tau(   5) = (   0.1250000   0.3750000   0.3750000  )
         6           S   tau(   6) = (   0.1250000   0.1250000   0.1250000  )
         7           S   tau(   7) = (   0.3750000   0.3750000   0.1250000  )
         8           S   tau(   8) = (   0.3750000   0.1250000   0.3750000  )
         9           Zn  tau(   9) = (   0.0000000   0.0000000   0.5000000  )
        10           Zn  tau(  10) = (   0.0000000   0.2500000   0.7500000  )
        11           Zn  tau(  11) = (   0.2500000   0.0000000   0.7500000  )
        12           Zn  tau(  12) = (   0.2500000   0.2500000   0.5000000  )
        13           S   tau(  13) = (   0.1250000   0.3750000   0.8750000  )
        14           S   tau(  14) = (   0.1250000   0.1250000   0.6250000  )
        15           S   tau(  15) = (   0.3750000   0.3750000   0.6250000  )
        16           S   tau(  16) = (   0.3750000   0.1250000   0.8750000  )
        17           Zn  tau(  17) = (   0.0000000   0.5000000   0.0000000  )
        18           Zn  tau(  18) = (   0.0000000   0.7500000   0.2500000  )
        19           Zn  tau(  19) = (   0.2500000   0.5000000   0.2500000  )
        20           Zn  tau(  20) = (   0.2500000   0.7500000   0.0000000  )
        21           S   tau(  21) = (   0.1250000   0.8750000   0.3750000  )
        22           S   tau(  22) = (   0.1250000   0.6250000   0.1250000  )
        23           S   tau(  23) = (   0.3750000   0.8750000   0.1250000  )
        24           S   tau(  24) = (   0.3750000   0.6250000   0.3750000  )
        25           Zn  tau(  25) = (   0.0000000   0.5000000   0.5000000  )
        26           Zn  tau(  26) = (   0.0000000   0.7500000   0.7500000  )
        27           Zn  tau(  27) = (   0.2500000   0.5000000   0.7500000  )
        28           Zn  tau(  28) = (   0.2500000   0.7500000   0.5000000  )
        29           S   tau(  29) = (   0.1250000   0.8750000   0.8750000  )
        30           S   tau(  30) = (   0.1250000   0.6250000   0.6250000  )
        31           S   tau(  31) = (   0.3750000   0.8750000   0.6250000  )
        32           S   tau(  32) = (   0.3750000   0.6250000   0.8750000  )
        33           Zn  tau(  33) = (   0.5000000   0.0000000   0.0000000  )
        34           Zn  tau(  34) = (   0.5000000   0.2500000   0.2500000  )
        35           Zn  tau(  35) = (   0.7500000   0.0000000   0.2500000  )
        36           Zn  tau(  36) = (   0.7500000   0.2500000   0.0000000  )
        37           S   tau(  37) = (   0.6250000   0.3750000   0.3750000  )
        38           S   tau(  38) = (   0.6250000   0.1250000   0.1250000  )
        39           S   tau(  39) = (   0.8750000   0.3750000   0.1250000  )
        40           S   tau(  40) = (   0.8750000   0.1250000   0.3750000  )
        41           Zn  tau(  41) = (   0.5000000   0.0000000   0.5000000  )
        42           Zn  tau(  42) = (   0.5000000   0.2500000   0.7500000  )
        43           Zn  tau(  43) = (   0.7500000   0.0000000   0.7500000  )
        44           Zn  tau(  44) = (   0.7500000   0.2500000   0.5000000  )
        45           S   tau(  45) = (   0.6250000   0.3750000   0.8750000  )
        46           S   tau(  46) = (   0.6250000   0.1250000   0.6250000  )
        47           S   tau(  47) = (   0.8750000   0.3750000   0.6250000  )
        48           S   tau(  48) = (   0.8750000   0.1250000   0.8750000  )
        49           Zn  tau(  49) = (   0.5000000   0.5000000   0.0000000  )
        50           Zn  tau(  50) = (   0.5000000   0.7500000   0.2500000  )
        51           Zn  tau(  51) = (   0.7500000   0.5000000   0.2500000  )
        52           Zn  tau(  52) = (   0.7500000   0.7500000   0.0000000  )
        53           S   tau(  53) = (   0.6250000   0.8750000   0.3750000  )
        54           S   tau(  54) = (   0.6250000   0.6250000   0.1250000  )
        55           S   tau(  55) = (   0.8750000   0.8750000   0.1250000  )
[...]
     atom  30 (R=0.089)  charge=  3.9874  magn=  0.0044
     atom  31 (R=0.089)  charge=  3.9874  magn=  0.0044
     atom  32 (R=0.089)  charge=  3.9874  magn=  0.0044
     atom  33 (R=0.089)  charge= 10.1552  magn=  0.0031
     atom  34 (R=0.089)  charge= 10.1549  magn=  0.0084
     atom  35 (R=0.089)  charge= 10.1557  magn=  0.0008
     atom  36 (R=0.089)  charge= 10.1557  magn=  0.0008
     atom  37 (R=0.089)  charge=  3.9855  magn=  0.1209
     atom  38 (R=0.089)  charge=  3.9862  magn=  0.0116
     atom  39 (R=0.089)  charge=  3.9862  magn=  0.0116
     atom  40 (R=0.089)  charge=  3.9862  magn=  0.0116
     atom  41 (R=0.089)  charge= 10.1569  magn=  0.0003
     atom  42 (R=0.089)  charge= 10.1549  magn=  0.0084
     atom  43 (R=0.089)  charge= 10.1557  magn=  0.0008
     atom  44 (R=0.089)  charge= 10.1549  magn=  0.0084
     atom  45 (R=0.089)  charge=  3.9874  magn=  0.0044
     atom  46 (R=0.089)  charge=  3.9874  magn=  0.0044
     atom  47 (R=0.089)  charge=  3.9874  magn=  0.0044
     atom  48 (R=0.089)  charge=  3.9876  magn=  0.0023
     atom  49 (R=0.089)  charge= 10.1569  magn=  0.0003
     atom  50 (R=0.089)  charge= 10.1549  magn=  0.0084
     atom  51 (R=0.089)  charge= 10.1549  magn=  0.0084
     atom  52 (R=0.089)  charge= 10.1557  magn=  0.0008
     atom  53 (R=0.089)  charge=  3.9874  magn=  0.0044
     atom  54 (R=0.089)  charge=  3.9874  magn=  0.0044
     atom  55 (R=0.089)  charge=  3.9876  magn=  0.0023
     atom  56 (R=0.089)  charge=  3.9874  magn=  0.0044
     atom  57 (R=0.089)  charge= 13.8760  magn=  3.5171
     atom  58 (R=0.089)  charge= 10.1549  magn=  0.0084
     atom  59 (R=0.089)  charge= 10.1549  magn=  0.0084
     atom  60 (R=0.089)  charge= 10.1549  magn=  0.0084
     atom  61 (R=0.089)  charge=  3.9862  magn=  0.0116
     atom  62 (R=0.089)  charge=  3.9855  magn=  0.1209
     atom  63 (R=0.089)  charge=  3.9862  magn=  0.0116
     atom  64 (R=0.089)  charge=  3.9862  magn=  0.0116

     End of self-consistent calculation

 ------ SPIN UP ------------

          k = 0.0000 0.0000 0.0000 (269825 PWs)   bands (ev):

   -84.5501 -50.5646 -50.5646 -50.5646  -7.5100  -7.0650  -7.0650  -7.0650
    -7.0623  -6.8505  -6.8505  -6.7234  -6.7234  -6.7234  -6.6205  -6.5294
    -6.5294  -6.5294  -6.5286  -6.5286  -6.5286  -6.5278  -6.5278  -6.4777
    -6.4777  -6.4777  -6.4692  -6.2876  -6.2876  -6.2876  -6.2002  -6.2002
    -6.2002  -6.1653  -6.1653  -6.1653  -0.7147  -0.7070  -0.7070  -0.6925
    -0.6925  -0.6925  -0.6468  -0.6379  -0.6379  -0.6231  -0.6231  -0.6231
    -0.6169  -0.6169  -0.6169  -0.5864  -0.5864  -0.5864  -0.5809  -0.5809
    -0.5446  -0.5446  -0.5446  -0.5343  -0.5221  -0.5221  -0.5221  -0.5180
    -0.5180  -0.5180  -0.5179  -0.5179  -0.5055  -0.5040  -0.5040  -0.5040
    -0.4933  -0.4933  -0.4933  -0.4897  -0.4897  -0.4897  -0.4621  -0.4621
    -0.4515  -0.4515  -0.4515  -0.4461  -0.4448  -0.4448  -0.4448  -0.4299
    -0.4299  -0.4296  -0.4296  -0.4296  -0.4273  -0.4273  -0.4273  -0.4255
    -0.4255  -0.4255  -0.3647  -0.3647  -0.3647  -0.3530  -0.3530  -0.3530
    -0.3392  -0.3366  -0.3366  -0.3292  -0.3292  -0.3292  -0.3247  -0.3247
    -0.3247  -0.2950  -0.2950  -0.2950  -0.2768  -0.2768  -0.2768  -0.2691
    -0.2691  -0.2691  -0.2597  -0.2597  -0.2597  -0.2489  -0.2489  -0.2171
    -0.2171  -0.2171  -0.1943  -0.1925  -0.1860  -0.1860  -0.1834  -0.1834
    -0.1834  -0.1814  -0.1814  -0.1814  -0.1759  -0.1759  -0.1759  -0.1483
    -0.1329  -0.1329  -0.1203  -0.1141  -0.1072  -0.1072  -0.1072  -0.1062
    -0.1062  -0.1005  -0.1005  -0.0999  -0.0999  -0.0999  -0.0831  -0.0831
    -0.0831  -0.0748  -0.0740  -0.0740  -0.0740  -0.0699  -0.0699  -0.0465
    -0.0465  -0.0465  -0.0433  -0.0433  -0.0433  -0.0426  -0.0426  -0.0301
    -0.0014  -0.0014   0.0012   0.0012   0.0012   0.0576   0.0767   0.0767
     0.0767   0.2123   0.2123   0.2123   0.2448   0.2448   0.2448   0.4123
     0.4123   0.4123   0.4636   0.9173   0.9173   1.0724   1.0724   1.0724
     1.1053   1.1053   1.1053   1.1370   1.1568   1.1568   1.1784   1.6848
     1.6848   1.6894   1.6894   1.6894   1.7038   1.7038   1.7038   1.7515
     1.7515   1.7517   1.9681   1.9681   1.9681   2.8857   2.8857   2.8857
     2.9141   2.9141   2.9141   2.9699   2.9699   2.9699   2.9875   3.0231
     3.0231   3.0743   3.0845   3.0845   3.1346   3.1346   3.1346   3.1601
     3.1601   3.1601   3.1695   3.1695   3.1695   3.1988   3.2020   3.2020
     3.2475   3.2475   3.2475   3.4243   3.4243   3.4243   3.4808   3.4808
     3.4808   4.3651   4.3651   4.3651   4.3736   4.3736   4.3736   4.4177
     4.4177   4.4177   4.4673   4.4673   4.4673   4.6466   4.6466   4.6466
     4.6774   4.6774   4.7352   4.7352   4.7352   4.7418   4.7730   4.7730
     4.7730   4.7816   4.7816   4.7927   4.7927   4.7927   4.8064   4.8064
     4.8064   5.6058   5.6058   5.6058   7.6145   8.8411   8.8411   8.8411
     8.9530   9.0586   9.0586   9.0586   9.6559   9.6559   9.7155  10.0043
    10.0043  10.0043  10.0153  10.0387  10.0387  10.1602  10.1602  10.1678
    10.1678  10.1678  10.2304  10.3350  10.3350  10.3350  10.3434  10.3434
    10.3434  10.3736  10.3736  10.3736  10.3840  10.3840  10.6934  11.2879
    11.2879  11.2879  11.2915  11.2915  11.2915  11.4954  11.4954  11.4954
    11.5257  11.5257  11.7423  11.9832  11.9832  11.9833  12.2070  12.2072
    12.2288  12.2299  12.2302  12.2302

     occupation numbers
     1.0000   1.0000   1.0000   1.0000   1.0000   1.0000   1.0000   1.0000
     1.0000   1.0000   1.0000   1.0000   1.0000   1.0000   1.0000   1.0000
     1.0000   1.0000   1.0000   1.0000   1.0000   1.0000   1.0000   1.0000
     1.0000   1.0000   1.0000   1.0000   1.0000   1.0000   1.0000   1.0000
     1.0000   1.0000   1.0000   1.0000   1.0000   1.0000   1.0000   1.0000
     1.0000   1.0000   1.0000   1.0000   1.0000   1.0000   1.0000   1.0000
     1.0000   1.0000   1.0000   1.0000   1.0000   1.0000   1.0000   1.0000
     1.0000   1.0000   1.0000   1.0000   1.0000   1.0000   1.0000   1.0000
     1.0000   1.0000   1.0000   1.0000   1.0000   1.0000   1.0000   1.0000
     1.0000   1.0000   1.0000   1.0000   1.0000   1.0000   1.0000   1.0000
     1.0000   1.0000   1.0000   1.0000   1.0000   1.0000   1.0000   1.0000
     1.0000   1.0000   1.0000   1.0000   1.0000   1.0000   1.0000   1.0000
     1.0000   1.0000   1.0000   1.0000   1.0000   1.0000   1.0000   1.0000
     1.0000   1.0000   1.0000   1.0000   1.0000   1.0000   1.0000   1.0000
     1.0000   1.0000   1.0000   1.0000   1.0000   1.0000   1.0000   1.0000
     1.0000   1.0000   1.0000   1.0000   1.0000   1.0000   1.0000   1.0000
     1.0000   1.0000   1.0000   1.0000   1.0000   1.0000   1.0000   1.0000
     1.0000   1.0000   1.0000   1.0000   1.0000   1.0000   1.0000   1.0000
     1.0000   1.0000   1.0000   1.0000   1.0000   1.0000   1.0000   1.0000
     1.0000   1.0000   1.0000   1.0000   1.0000   1.0000   1.0000   1.0000
     1.0000   1.0000   1.0000   1.0000   1.0000   1.0000   1.0000   1.0000
     1.0000   1.0000   1.0000   1.0000   1.0000   1.0000   1.0000   1.0000
     1.0000   1.0000   1.0000   1.0000   1.0000   1.0000   1.0000   1.0000
     1.0000   1.0000   1.0000   1.0000   1.0000   1.0000   1.0000   1.0000
     1.0000   1.0000   1.0000   1.0000   1.0000   1.0000   1.0000   1.0000
     1.0000   1.0000   1.0000   1.0000   1.0000   1.0000   1.0000   1.0000
     1.0000   1.0000   1.0000   1.0000   1.0000   1.0000   1.0000   1.0000
     1.0000   1.0000   1.0000   1.0000   1.0000   1.0000   1.0000   1.0000
     1.0000   1.0000   1.0000   1.0000   1.0000   1.0000   1.0000   1.0000
     1.0000   1.0000   1.0000   1.0000   1.0000   1.0000   1.0000   1.0000
     1.0000   1.0000   1.0000   1.0000   1.0000   1.0000   1.0000   1.0000
     1.0000   1.0000   1.0000   1.0000   1.0000   1.0000   1.0000   1.0000
     1.0000   1.0000   1.0000   1.0000   1.0000   1.0000   1.0000   1.0000
     1.0000   1.0000   1.0000   1.0000   1.0000   1.0000   1.0000   1.0000
     1.0000   1.0000   1.0000   1.0000   1.0000   1.0000   1.0000   1.0000
     1.0000   1.0000   1.0000   1.0000   1.0000   1.0000   1.0000   1.0000
     1.0000   1.0000   1.0000   1.0000   0.0000   0.0000   0.0000   0.0000
     0.0000   0.0000   0.0000   0.0000   0.0000   0.0000   0.0000   0.0000
     0.0000   0.0000   0.0000   0.0000   0.0000   0.0000   0.0000   0.0000
     0.0000   0.0000   0.0000   0.0000   0.0000   0.0000   0.0000   0.0000
     0.0000   0.0000   0.0000   0.0000   0.0000   0.0000   0.0000   0.0000
     0.0000   0.0000   0.0000   0.0000   0.0000   0.0000   0.0000   0.0000
     0.0000   0.0000   0.0000   0.0000   0.0000   0.0000   0.0000   0.0000
     0.0000   0.0000   0.0000   0.0000

[...]

          k =-0.5000-0.5000-0.5000 (269968 PWs)   bands (ev):

[...]

 ------ SPIN DOWN ----------

[...]

          k = 0.2500-0.5000-0.5000 (269956 PWs)   bands (ev):

[...]

          k =-0.5000-0.5000-0.5000 (269968 PWs)   bands (ev):

   -80.4352 -46.5410 -46.5410 -46.5410  -7.1976  -7.0534  -7.0534  -7.0534
    -6.9657  -6.9657  -6.9657  -6.9236  -6.6254  -6.6254  -6.6254  -6.4435
    -6.3644  -6.3644  -6.3628  -6.3628  -6.3628  -6.3600  -6.3600  -6.3600
    -6.3504  -6.3504  -6.3504  -6.3478  -6.3478  -6.3478  -6.3472  -6.3472
    -6.3184  -6.2821  -6.2821  -6.2821  -0.6407  -0.6407  -0.6407  -0.6194
    -0.6194  -0.6194  -0.6090  -0.6090  -0.6027  -0.5998  -0.5998  -0.5998
    -0.5817  -0.5817  -0.5817  -0.5749  -0.5749  -0.5659  -0.5645  -0.5645
    -0.5645  -0.5544  -0.5544  -0.5544  -0.5452  -0.5411  -0.5411  -0.5411
    -0.5384  -0.5384  -0.5297  -0.5297  -0.5297  -0.5231  -0.5231  -0.5231
    -0.5158  -0.5158  -0.5158  -0.5063  -0.5063  -0.5063  -0.4870  -0.4795
    -0.4795  -0.4795  -0.4764  -0.4748  -0.4748  -0.4492  -0.4492  -0.4492
    -0.4194  -0.4194  -0.4194  -0.4185  -0.4185  -0.3814  -0.3814  -0.3814
    -0.3810  -0.3810  -0.3712  -0.3712  -0.3712  -0.3645  -0.3645  -0.3645
    -0.3599  -0.3495  -0.3495  -0.3495  -0.3102  -0.3102  -0.3102  -0.2981
    -0.2873  -0.2873  -0.2852  -0.2852  -0.2852  -0.2823  -0.2823  -0.2823
    -0.2810  -0.2810  -0.2810  -0.2496  -0.2482  -0.2482  -0.2472  -0.2472
    -0.2472  -0.2055  -0.2055  -0.2055  -0.2010  -0.2010  -0.1893  -0.1893
    -0.1893  -0.1671  -0.1516  -0.1516  -0.1516  -0.1436  -0.1436  -0.1436
    -0.1373  -0.1373  -0.1373  -0.1055  -0.1055  -0.1055  -0.0791  -0.0791
    -0.0791  -0.0680  -0.0680  -0.0680  -0.0671  -0.0671  -0.0638  -0.0638
    -0.0638  -0.0599  -0.0599  -0.0599  -0.0459  -0.0459  -0.0459  -0.0437
    -0.0200  -0.0200  -0.0057   0.0010   0.0010   0.0191   0.0191   0.0191
     0.0257   0.0257   0.0257   0.0401   0.0401   0.0401   0.0490   0.0490
     0.0490   0.0544   0.0544   0.0705   0.0802   0.0802   0.0802   1.1024
     1.1024   1.1024   1.1358   1.1358   1.1636   1.1636   1.1636   1.1666
     1.1666   1.1666   1.2491   1.2491   1.2491   1.2536   1.2536   1.2567
     1.2567   1.2567   1.2610   1.2610   1.2610   1.2909   1.4699   2.4957
     2.4957   2.4957   2.8314   2.8314   2.8314   2.8410   2.8891   2.9457
     2.9457   3.0748   3.0748   3.0748   3.2426   3.2426   3.2426   3.2529
     3.2529   3.2529   3.2997   3.2997   3.2997   3.3072   3.3072   3.3072
     3.3112   3.3245   3.3245   3.3256   3.3256   3.3256   3.3772   3.7652
     3.7652   3.7652   3.9566   3.9566   3.9566   3.9780   3.9780   4.0577
     4.0705   4.0705   4.0705   4.0836   4.0836   4.0836   4.0875   4.0875
     4.0875   4.0935   4.0935   4.0998   4.1091   4.1091   4.1091   4.7023
     4.7023   4.7023   5.0466   5.0466   5.1367   5.1367   5.1367   5.1777
     5.1777   5.1777   5.1805   5.1805   5.1961   5.1961   5.1961   5.8893
     5.8893   6.4257   6.4257   6.4257   9.0012   9.0012   9.0012   9.0074
     9.0173   9.0173   9.0173   9.1432   9.8998   9.8998   9.8998   9.9111
     9.9111   9.9111   9.9396   9.9396   9.9474   9.9474   9.9474   9.9526
     9.9526   9.9526   9.9530   9.9646   9.9646   9.9646   9.9918   9.9918
    10.0011  10.0011  10.0011  10.4027  11.4427  11.4427  11.4427  11.4983
    11.4983  11.4983  11.5103  11.5103  11.5477  11.5477  11.5477  11.5568
    11.5613  11.5613  11.5613  11.5662  11.5662  11.5692  11.5692  11.5692
    11.6105  11.6105  11.6105  12.1408

     occupation numbers
     1.0000   1.0000   1.0000   1.0000   1.0000   1.0000   1.0000   1.0000
     1.0000   1.0000   1.0000   1.0000   1.0000   1.0000   1.0000   1.0000
     1.0000   1.0000   1.0000   1.0000   1.0000   1.0000   1.0000   1.0000
     1.0000   1.0000   1.0000   1.0000   1.0000   1.0000   1.0000   1.0000
     1.0000   1.0000   1.0000   1.0000   1.0000   1.0000   1.0000   1.0000
     1.0000   1.0000   1.0000   1.0000   1.0000   1.0000   1.0000   1.0000
     1.0000   1.0000   1.0000   1.0000   1.0000   1.0000   1.0000   1.0000
     1.0000   1.0000   1.0000   1.0000   1.0000   1.0000   1.0000   1.0000
     1.0000   1.0000   1.0000   1.0000   1.0000   1.0000   1.0000   1.0000
     1.0000   1.0000   1.0000   1.0000   1.0000   1.0000   1.0000   1.0000
     1.0000   1.0000   1.0000   1.0000   1.0000   1.0000   1.0000   1.0000
     1.0000   1.0000   1.0000   1.0000   1.0000   1.0000   1.0000   1.0000
     1.0000   1.0000   1.0000   1.0000   1.0000   1.0000   1.0000   1.0000
     1.0000   1.0000   1.0000   1.0000   1.0000   1.0000   1.0000   1.0000
     1.0000   1.0000   1.0000   1.0000   1.0000   1.0000   1.0000   1.0000
     1.0000   1.0000   1.0000   1.0000   1.0000   1.0000   1.0000   1.0000
     1.0000   1.0000   1.0000   1.0000   1.0000   1.0000   1.0000   1.0000
     1.0000   1.0000   1.0000   1.0000   1.0000   1.0000   1.0000   1.0000
     1.0000   1.0000   1.0000   1.0000   1.0000   1.0000   1.0000   1.0000
     1.0000   1.0000   1.0000   1.0000   1.0000   1.0000   1.0000   1.0000
     1.0000   1.0000   1.0000   1.0000   1.0000   1.0000   1.0000   1.0000
     1.0000   1.0000   1.0000   1.0000   1.0000   1.0000   1.0000   1.0000
     1.0000   1.0000   1.0000   1.0000   1.0000   1.0000   1.0000   1.0000
     1.0000   1.0000   1.0000   1.0000   1.0000   1.0000   1.0000   1.0000
     1.0000   1.0000   1.0000   1.0000   1.0000   1.0000   1.0000   1.0000
     1.0000   1.0000   1.0000   1.0000   1.0000   1.0000   1.0000   1.0000
     1.0000   1.0000   1.0000   1.0000   1.0000   1.0000   1.0000   1.0000
     1.0000   1.0000   1.0000   1.0000   1.0000   1.0000   1.0000   1.0000
     1.0000   1.0000   1.0000   1.0000   1.0000   1.0000   1.0000   1.0000
     1.0000   1.0000   1.0000   1.0000   1.0000   1.0000   1.0000   1.0000
     1.0000   1.0000   1.0000   1.0000   1.0000   1.0000   1.0000   1.0000
     1.0000   1.0000   1.0000   1.0000   1.0000   1.0000   1.0000   1.0000
     1.0000   1.0000   1.0000   1.0000   1.0000   1.0000   1.0000   1.0000
     1.0000   1.0000   1.0000   1.0000   1.0000   1.0000   1.0000   1.0000
     1.0000   1.0000   1.0000   1.0000   1.0000   1.0000   1.0000   1.0000
     1.0000   1.0000   1.0000   1.0000   1.0000   1.0000   1.0000   0.0000
     0.0000   0.0000   0.0000   0.0000   0.0000   0.0000   0.0000   0.0000
     0.0000   0.0000   0.0000   0.0000   0.0000   0.0000   0.0000   0.0000
     0.0000   0.0000   0.0000   0.0000   0.0000   0.0000   0.0000   0.0000
     0.0000   0.0000   0.0000   0.0000   0.0000   0.0000   0.0000   0.0000
     0.0000   0.0000   0.0000   0.0000   0.0000   0.0000   0.0000   0.0000
     0.0000   0.0000   0.0000   0.0000   0.0000   0.0000   0.0000   0.0000
     0.0000   0.0000   0.0000   0.0000   0.0000   0.0000   0.0000   0.0000
     0.0000   0.0000   0.0000   0.0000

     the Fermi energy is     5.7465 ev

!    total energy              =  -10010.27722668 Ry
     total all-electron energy =   -139454.117325 Ry
     estimated scf accuracy    <          6.6E-09 Ry
     smearing contrib. (-TS)   =      -0.00000000 Ry
     internal energy E=F+TS    =  -10010.27722668 Ry

     The total energy is F=E-TS. E is the sum of the following terms:
     one-electron contribution =   -2868.92731740 Ry
     hartree contribution      =    2006.00321162 Ry
     xc contribution           =   -1654.37010252 Ry
     ewald contribution        =   -2975.94713457 Ry
     one-center paw contrib.   =   -4517.03588382 Ry
      -> PAW hartree energy AE =     123.15948975 Ry
      -> PAW hartree energy PS =    -122.51729435 Ry
      -> PAW xc energy AE      =    -143.19998470 Ry
      -> PAW xc energy PS      =      47.13878016 Ry
      -> total E_H with PAW    =    2006.64540703 Ry
      -> total E_XC with PAW   =   -1750.43130706 Ry

     total magnetization       =     5.00 Bohr mag/cell
     absolute magnetization    =     5.03 Bohr mag/cell

     convergence has been achieved in  15 iterations

     Writing all to output data dir ./out/Fe_qp1_unrlxd.save/

     General routines

     Parallel routines

     PAW routines

   This run was terminated on:  14:51:58   5Jul2024

   JOB DONE.