     Program PWSCF v.7.2 starts on  6Jul2024 at 18:10:15

     Reading input from 1.Co_in_ZnS.scf.q0.unrlxd.in

     Current dimensions of program PWSCF are:
     Max number of different atomic species (ntypx) = 10
     Max number of k-points (npk) =  40000
     Max angular momentum in pseudopotentials (lmaxx) =  4
     file S.pbe-n-kjpaw_psl.1.0.0.UPF: wavefunction(s)  3S 3P renormalized
     file Zn.pbe-dnl-kjpaw_psl.1.0.0.UPF: wavefunction(s)  4S 3D renormalized
     file Co.pbe-spn-kjpaw_psl.0.3.1.UPF: wavefunction(s)  3P 3D renormalized

     K-points division:     npool     =      10
     R & G space division:  proc/nbgrp/npool/nimage =     112
     Subspace diagonalization in iterative solution of the eigenvalue problem:
     one sub-group per band group will be used

     Using Slab Decomposition

     bravais-lattice index     =            1
     lattice parameter (alat)  =      20.5686  a.u.
     unit-cell volume          =    8701.8677 (a.u.)^3
     number of atoms/cell      =           64
     number of atomic types    =            3
     number of electrons       =       581.00
     number of Kohn-Sham states=          349
     kinetic-energy cutoff     =     150.0000  Ry
     charge density cutoff     =     600.0000  Ry
     scf convergence threshold =      1.0E-08
     mixing beta               =       0.7000
     number of iterations used =            8  plain     mixing
     Exchange-correlation= SLA  PW   PBX  PBC
                           (   1   4   3   4   0   0   0)

     celldm(1)=  20.568573  celldm(2)=   0.000000  celldm(3)=   0.000000
     celldm(4)=   0.000000  celldm(5)=   0.000000  celldm(6)=   0.000000

     crystal axes: (cart. coord. in units of alat)
               a(1) = (   1.000000   0.000000   0.000000 )
               a(2) = (   0.000000   1.000000   0.000000 )
               a(3) = (   0.000000   0.000000   1.000000 )

     reciprocal axes: (cart. coord. in units 2 pi/alat)
               b(1) = (  1.000000  0.000000  0.000000 )
               b(2) = (  0.000000  1.000000  0.000000 )
               b(3) = (  0.000000  0.000000  1.000000 )

     PseudoPot. # 1 for S  read from file:
     /arf/home/amuhaymin/pseudo/S.pbe-n-kjpaw_psl.1.0.0.UPF
     MD5 check sum: fb45dfebcf3e72a4e1bd4a866ec2e262
     Pseudo is Projector augmented-wave + core cor, Zval =  6.0
     Generated using &quot;atomic&quot; code by A. Dal Corso  v.6.3
     Shape of augmentation charge: PSQ
     Using radial grid of 1151 points,  6 beta functions with:
                l(1) =   0
                l(2) =   0
                l(3) =   1
                l(4) =   1
                l(5) =   2
                l(6) =   2
     Q(r) pseudized with 0 coefficients

     PseudoPot. # 2 for Zn read from file:
     /arf/home/amuhaymin/pseudo/Zn.pbe-dnl-kjpaw_psl.1.0.0.UPF
     MD5 check sum: c608214d9520ac179f507641260889e3
     Pseudo is Projector augmented-wave + core cor, Zval = 12.0
     Generated using &quot;atomic&quot; code by A. Dal Corso  v.6.2.2
     Shape of augmentation charge: PSQ
     Using radial grid of 1201 points,  6 beta functions with:
                l(1) =   0
                l(2) =   0
                l(3) =   1
                l(4) =   1
                l(5) =   2
                l(6) =   2
     Q(r) pseudized with 0 coefficients

     PseudoPot. # 3 for Co read from file:
     /arf/home/amuhaymin/pseudo/Co.pbe-spn-kjpaw_psl.0.3.1.UPF
     MD5 check sum: b0a1ad65bf214e88c1f3d33b20c7d919
     Pseudo is Projector augmented-wave + core cor, Zval = 17.0
     Generated using &quot;atomic&quot; code by A. Dal Corso  v.6.2.2
     Shape of augmentation charge: PSQ
     Using radial grid of 1193 points,  6 beta functions with:
                l(1) =   0
                l(2) =   0
                l(3) =   1
                l(4) =   1
                l(5) =   2
                l(6) =   2
     Q(r) pseudized with 0 coefficients

     atomic species   valence    mass     pseudopotential
        S              6.00    32.06500     S ( 1.00)
        Zn            12.00    65.38000     Zn( 1.00)
        Co            17.00    63.54600     Co( 1.00)

     Starting magnetic structure
     atomic species   magnetization
        S            0.000
        Zn           0.000
        Co           0.176

     24 Sym. Ops. (no inversion) found

                                    s                        frac. trans.

      isym =  1     identity

 cryst.   s( 1) = (     1          0          0      )
                  (     0          1          0      )
                  (     0          0          1      )

 cart.    s( 1) = (  1.0000000  0.0000000  0.0000000 )
                  (  0.0000000  1.0000000  0.0000000 )
                  (  0.0000000  0.0000000  1.0000000 )

      isym =  2     180 deg rotation - cart. axis [0,0,1]

[...]

 cryst.   s( 9) = (     0          1          0      )
                  (     0          0          1      )
                  (     1          0          0      )

 cart.    s( 9) = (  0.0000000  0.0000000  1.0000000 )
                  (  1.0000000  0.0000000  0.0000000 )
                  (  0.0000000  1.0000000  0.0000000 )

[...]

 cryst.   s(10) = (     0         -1          0      )
                  (     0          0         -1      )
                  (     1          0          0      )

 cart.    s(10) = (  0.0000000  0.0000000  1.0000000 )
                  ( -1.0000000  0.0000000  0.0000000 )
                  (  0.0000000 -1.0000000  0.0000000 )

[...]

      isym = 12     120 deg rotation - cart. axis [-1,-1,1]

[...]

      isym = 13     inv. 180 deg rotation - cart. axis [1,1,0]

[...]

      isym = 24     inv.  90 deg rotation - cart. axis [1,0,0]

 cryst.   s(24) = (    -1          0          0      )
                  (     0          0         -1      )
                  (     0          1          0      )

 cart.    s(24) = ( -1.0000000  0.0000000  0.0000000 )
                  (  0.0000000  0.0000000  1.0000000 )
                  (  0.0000000 -1.0000000  0.0000000 )

     point group T_d (-43m)
     there are  5 classes
     the character table:

       E     8C3   3C2   6S4   6s_d
A_1    1.00  1.00  1.00  1.00  1.00
A_2    1.00  1.00  1.00 -1.00 -1.00
E      2.00 -1.00  2.00  0.00  0.00
T_1    3.00  0.00 -1.00  1.00 -1.00
T_2    3.00  0.00 -1.00 -1.00  1.00

     the symmetry operations in each class and the name of the first element:

     E        1
          identity
     8C3      5    7    8    6   12    9   10   11
          120 deg rotation - cart. axis [-1,-1,-1]
     3C2      2    3    4
          180 deg rotation - cart. axis [0,0,1]
     6S4     15   16   20   19   23   24
          inv.  90 deg rotation - cart. axis [0,0,-1]
     6s_d    13   14   17   18   21   22
          inv. 180 deg rotation - cart. axis [1,1,0]

   Cartesian axes

     site n.     atom                  positions (alat units)
         1           Zn  tau(   1) = (   0.0000000   0.0000000   0.0000000  )
         2           Zn  tau(   2) = (   0.0000000   0.2500000   0.2500000  )
         3           Zn  tau(   3) = (   0.2500000   0.0000000   0.2500000  )
         4           Zn  tau(   4) = (   0.2500000   0.2500000   0.0000000  )
         5           S   tau(   5) = (   0.1250000   0.3750000   0.3750000  )
         6           S   tau(   6) = (   0.1250000   0.1250000   0.1250000  )
         7           S   tau(   7) = (   0.3750000   0.3750000   0.1250000  )
         8           S   tau(   8) = (   0.3750000   0.1250000   0.3750000  )
         9           Zn  tau(   9) = (   0.0000000   0.0000000   0.5000000  )
        10           Zn  tau(  10) = (   0.0000000   0.2500000   0.7500000  )
        11           Zn  tau(  11) = (   0.2500000   0.0000000   0.7500000  )
        12           Zn  tau(  12) = (   0.2500000   0.2500000   0.5000000  )
        13           S   tau(  13) = (   0.1250000   0.3750000   0.8750000  )
        14           S   tau(  14) = (   0.1250000   0.1250000   0.6250000  )
        15           S   tau(  15) = (   0.3750000   0.3750000   0.6250000  )
        16           S   tau(  16) = (   0.3750000   0.1250000   0.8750000  )
        17           Zn  tau(  17) = (   0.0000000   0.5000000   0.0000000  )
        18           Zn  tau(  18) = (   0.0000000   0.7500000   0.2500000  )
        19           Zn  tau(  19) = (   0.2500000   0.5000000   0.2500000  )
        20           Zn  tau(  20) = (   0.2500000   0.7500000   0.0000000  )
        21           S   tau(  21) = (   0.1250000   0.8750000   0.3750000  )
        22           S   tau(  22) = (   0.1250000   0.6250000   0.1250000  )
        23           S   tau(  23) = (   0.3750000   0.8750000   0.1250000  )
        24           S   tau(  24) = (   0.3750000   0.6250000   0.3750000  )
        25           Zn  tau(  25) = (   0.0000000   0.5000000   0.5000000  )
        26           Zn  tau(  26) = (   0.0000000   0.7500000   0.7500000  )
        27           Zn  tau(  27) = (   0.2500000   0.5000000   0.7500000  )
        28           Zn  tau(  28) = (   0.2500000   0.7500000   0.5000000  )
        29           S   tau(  29) = (   0.1250000   0.8750000   0.8750000  )
        30           S   tau(  30) = (   0.1250000   0.6250000   0.6250000  )
        31           S   tau(  31) = (   0.3750000   0.8750000   0.6250000  )
        32           S   tau(  32) = (   0.3750000   0.6250000   0.8750000  )
        33           Zn  tau(  33) = (   0.5000000   0.0000000   0.0000000  )
        34           Zn  tau(  34) = (   0.5000000   0.2500000   0.2500000  )
        35           Zn  tau(  35) = (   0.7500000   0.0000000   0.2500000  )
        36           Zn  tau(  36) = (   0.7500000   0.2500000   0.0000000  )
        37           S   tau(  37) = (   0.6250000   0.3750000   0.3750000  )
        38           S   tau(  38) = (   0.6250000   0.1250000   0.1250000  )
        39           S   tau(  39) = (   0.8750000   0.3750000   0.1250000  )
        40           S   tau(  40) = (   0.8750000   0.1250000   0.3750000  )
        41           Zn  tau(  41) = (   0.5000000   0.0000000   0.5000000  )
        42           Zn  tau(  42) = (   0.5000000   0.2500000   0.7500000  )
        43           Zn  tau(  43) = (   0.7500000   0.0000000   0.7500000  )
        44           Zn  tau(  44) = (   0.7500000   0.2500000   0.5000000  )
        45           S   tau(  45) = (   0.6250000   0.3750000   0.8750000  )
        46           S   tau(  46) = (   0.6250000   0.1250000   0.6250000  )
        47           S   tau(  47) = (   0.8750000   0.3750000   0.6250000  )
        48           S   tau(  48) = (   0.8750000   0.1250000   0.8750000  )
        49           Zn  tau(  49) = (   0.5000000   0.5000000   0.0000000  )
        50           Zn  tau(  50) = (   0.5000000   0.7500000   0.2500000  )
        51           Zn  tau(  51) = (   0.7500000   0.5000000   0.2500000  )
        52           Zn  tau(  52) = (   0.7500000   0.7500000   0.0000000  )
        53           S   tau(  53) = (   0.6250000   0.8750000   0.3750000  )
        54           S   tau(  54) = (   0.6250000   0.6250000   0.1250000  )
        55           S   tau(  55) = (   0.8750000   0.8750000   0.1250000  )
[...]
     atom  31 (R=0.089)  charge=  3.9934  magn=  0.0002
     atom  32 (R=0.089)  charge=  3.9934  magn=  0.0002
     atom  33 (R=0.089)  charge= 10.1599  magn=  0.0013
     atom  34 (R=0.089)  charge= 10.1597  magn=  0.0032
     atom  35 (R=0.089)  charge= 10.1596  magn=  0.0001
     atom  36 (R=0.089)  charge= 10.1596  magn=  0.0001
     atom  37 (R=0.089)  charge=  3.9870  magn=  0.0629
     atom  38 (R=0.089)  charge=  3.9931  magn=  0.0046
     atom  39 (R=0.089)  charge=  3.9931  magn=  0.0046
     atom  40 (R=0.089)  charge=  3.9931  magn=  0.0046
     atom  41 (R=0.089)  charge= 10.1599  magn=  0.0001
     atom  42 (R=0.089)  charge= 10.1597  magn=  0.0032
     atom  43 (R=0.089)  charge= 10.1596  magn=  0.0001
     atom  44 (R=0.089)  charge= 10.1597  magn=  0.0032
     atom  45 (R=0.089)  charge=  3.9934  magn=  0.0002
     atom  46 (R=0.089)  charge=  3.9934  magn=  0.0002
     atom  47 (R=0.089)  charge=  3.9934  magn=  0.0002
     atom  48 (R=0.089)  charge=  3.9934  magn=  0.0007
     atom  49 (R=0.089)  charge= 10.1599  magn=  0.0001
     atom  50 (R=0.089)  charge= 10.1597  magn=  0.0032
     atom  51 (R=0.089)  charge= 10.1597  magn=  0.0032
     atom  52 (R=0.089)  charge= 10.1596  magn=  0.0001
     atom  53 (R=0.089)  charge=  3.9934  magn=  0.0002
     atom  54 (R=0.089)  charge=  3.9934  magn=  0.0002
     atom  55 (R=0.089)  charge=  3.9934  magn=  0.0007
     atom  56 (R=0.089)  charge=  3.9934  magn=  0.0002
     atom  57 (R=0.089)  charge= 15.0994  magn=  2.2720
     atom  58 (R=0.089)  charge= 10.1597  magn=  0.0032
     atom  59 (R=0.089)  charge= 10.1597  magn=  0.0032
     atom  60 (R=0.089)  charge= 10.1597  magn=  0.0032
     atom  61 (R=0.089)  charge=  3.9931  magn=  0.0046
     atom  62 (R=0.089)  charge=  3.9870  magn=  0.0629
     atom  63 (R=0.089)  charge=  3.9931  magn=  0.0046
     atom  64 (R=0.089)  charge=  3.9931  magn=  0.0046

     End of self-consistent calculation

 ------ SPIN UP ------------

          k = 0.0000 0.0000 0.0000 (269825 PWs)   bands (ev):

   -90.2014 -53.4696 -53.4696 -53.4696  -7.4346  -6.8976  -6.8976  -6.8976
    -6.8970  -6.8970  -6.8792  -6.5749  -6.5749  -6.5749  -6.5735  -6.5735
    -6.5735  -6.5733  -6.5733  -6.5729  -6.5729  -6.5729  -6.5629  -6.5482
    -6.5482  -6.5482  -6.5312  -6.2510  -6.2510  -6.2510  -6.2439  -6.2439
    -6.2439  -6.2421  -6.2421  -6.2421  -0.6918  -0.6918  -0.6888  -0.6861
    -0.6861  -0.6861  -0.6579  -0.6560  -0.6560  -0.6439  -0.6439  -0.6439
    -0.5402  -0.5402  -0.5402  -0.5387  -0.5387  -0.5386  -0.5386  -0.5386
    -0.5309  -0.5309  -0.5309  -0.5308  -0.5308  -0.5308  -0.5292  -0.5273
    -0.5273  -0.5246  -0.5246  -0.5246  -0.5195  -0.5178  -0.5178  -0.5178
    -0.5109  -0.5109  -0.5109  -0.5099  -0.5099  -0.5099  -0.5092  -0.5092
    -0.5092  -0.5043  -0.5043  -0.5026  -0.5026  -0.5026  -0.4997  -0.4997
    -0.4997  -0.4988  -0.4988  -0.4988  -0.4988  -0.4790  -0.4790  -0.4233
    -0.4233  -0.4233  -0.3792  -0.3792  -0.3792  -0.3755  -0.3755  -0.3755
    -0.3731  -0.3731  -0.3731  -0.3727  -0.3727  -0.3727  -0.3635  -0.3635
    -0.3448  -0.3350  -0.3350  -0.3350  -0.3205  -0.3205  -0.3205  -0.2353
    -0.2353  -0.2353  -0.2249  -0.2249  -0.2249  -0.2212  -0.2212  -0.2188
    -0.2065  -0.2064  -0.2064  -0.2064  -0.2063  -0.2063  -0.2049  -0.1996
    -0.1996  -0.1879  -0.1879  -0.1879  -0.1837  -0.1837  -0.1837  -0.1835
    -0.1834  -0.1834  -0.1834  -0.1728  -0.1728  -0.1572  -0.1572  -0.1497
    -0.1497  -0.1497  -0.1404  -0.1404  -0.1404  -0.1365  -0.1365  -0.1337
    -0.1337  -0.1337  -0.1334  -0.1269  -0.1269  -0.1269  -0.1207  -0.1207
    -0.1107  -0.1107  -0.1107  -0.1105  -0.1105  -0.1105  -0.1029  -0.0996
    -0.0996  -0.0974  -0.0103  -0.0103  -0.0103   0.0259   0.0348   0.0348
     0.0348   0.1701   0.1701   0.1701   0.2105   0.2105   0.2105   0.4080
     0.4080   0.4080   0.4502   1.0404   1.0404   1.0739   1.0739   1.0739
     1.0853   1.0853   1.0885   1.2519   1.5073   1.5073   1.5073   1.6866
     1.6866   1.6866   1.6868   1.6868   1.6940   1.6940   1.6940   1.9064
     2.4523   2.4523   2.4523   2.7460   2.7460   2.9117   2.9117   2.9117
     2.9240   2.9240   2.9240   2.9374   2.9601   2.9601   2.9601   3.0061
     3.0061   3.0880   3.0919   3.0919   3.0919   3.0954   3.0954   3.1372
     3.1372   3.1372   3.1521   3.1521   3.1521   3.2275   3.3362   3.3362
     3.3362   3.4173   3.4173   3.4173   3.5835   3.5835   3.5835   4.1413
     4.1413   4.3726   4.3726   4.3726   4.3746   4.3746   4.3746   4.3849
     4.3849   4.3849   4.4808   4.4808   4.4808   4.6904   4.6904   4.6904
     4.6941   4.6941   4.6941   4.6953   4.7129   4.7129   4.7129   4.7154
     4.7154   4.7281   4.7281   4.7281   4.9964   4.9964   5.0833   5.0833
     5.0833   5.6648   5.6648   5.6648   7.5998   8.8302   8.8302   8.8302
     8.9097   9.0382   9.0382   9.0382   9.6537   9.6537   9.6732   9.9981
     9.9981   9.9981  10.0102  10.0102  10.0292  10.1338  10.1338  10.1522
    10.1522  10.1522  10.1726  10.3281  10.3281  10.3281  10.3287  10.3287
    10.3287  10.3393  10.3393  10.3602  10.3602  10.3602  10.7676  11.2609
    11.2609  11.2609  11.2968  11.2968  11.2968  11.4867  11.4867  11.4867
    11.4974  11.4975  11.8368  11.9674  11.9674  11.9674  12.2012  12.2012
    12.2013  12.2041  12.2042  12.2046  12.2264

     occupation numbers
     1.0000   1.0000   1.0000   1.0000   1.0000   1.0000   1.0000   1.0000
     1.0000   1.0000   1.0000   1.0000   1.0000   1.0000   1.0000   1.0000
     1.0000   1.0000   1.0000   1.0000   1.0000   1.0000   1.0000   1.0000
     1.0000   1.0000   1.0000   1.0000   1.0000   1.0000   1.0000   1.0000
     1.0000   1.0000   1.0000   1.0000   1.0000   1.0000   1.0000   1.0000
     1.0000   1.0000   1.0000   1.0000   1.0000   1.0000   1.0000   1.0000
     1.0000   1.0000   1.0000   1.0000   1.0000   1.0000   1.0000   1.0000
     1.0000   1.0000   1.0000   1.0000   1.0000   1.0000   1.0000   1.0000
     1.0000   1.0000   1.0000   1.0000   1.0000   1.0000   1.0000   1.0000
     1.0000   1.0000   1.0000   1.0000   1.0000   1.0000   1.0000   1.0000
     1.0000   1.0000   1.0000   1.0000   1.0000   1.0000   1.0000   1.0000
     1.0000   1.0000   1.0000   1.0000   1.0000   1.0000   1.0000   1.0000
     1.0000   1.0000   1.0000   1.0000   1.0000   1.0000   1.0000   1.0000
     1.0000   1.0000   1.0000   1.0000   1.0000   1.0000   1.0000   1.0000
     1.0000   1.0000   1.0000   1.0000   1.0000   1.0000   1.0000   1.0000
     1.0000   1.0000   1.0000   1.0000   1.0000   1.0000   1.0000   1.0000
     1.0000   1.0000   1.0000   1.0000   1.0000   1.0000   1.0000   1.0000
     1.0000   1.0000   1.0000   1.0000   1.0000   1.0000   1.0000   1.0000
     1.0000   1.0000   1.0000   1.0000   1.0000   1.0000   1.0000   1.0000
     1.0000   1.0000   1.0000   1.0000   1.0000   1.0000   1.0000   1.0000
     1.0000   1.0000   1.0000   1.0000   1.0000   1.0000   1.0000   1.0000
     1.0000   1.0000   1.0000   1.0000   1.0000   1.0000   1.0000   1.0000
     1.0000   1.0000   1.0000   1.0000   1.0000   1.0000   1.0000   1.0000
     1.0000   1.0000   1.0000   1.0000   1.0000   1.0000   1.0000   1.0000
     1.0000   1.0000   1.0000   1.0000   1.0000   1.0000   1.0000   1.0000
     1.0000   1.0000   1.0000   1.0000   1.0000   1.0000   1.0000   1.0000
     1.0000   1.0000   1.0000   1.0000   1.0000   1.0000   1.0000   1.0000
     1.0000   1.0000   1.0000   1.0000   1.0000   1.0000   1.0000   1.0000
     1.0000   1.0000   1.0000   1.0000   1.0000   1.0000   1.0000   1.0000
     1.0000   1.0000   1.0000   1.0000   1.0000   1.0000   1.0000   1.0000
     1.0000   1.0000   1.0000   1.0000   1.0000   1.0000   1.0000   1.0000
     1.0000   1.0000   1.0000   1.0000   1.0000   1.0000   1.0000   1.0000
     1.0000   1.0000   1.0000   1.0000   1.0000   1.0000   1.0000   1.0000
     1.0000   1.0000   1.0000   1.0000   1.0000   1.0000   1.0000   1.0000
     1.0000   1.0000   1.0000   1.0000   1.0000   1.0000   1.0000   1.0000
     1.0000   1.0000   1.0000   1.0000   1.0000   1.0000   1.0000   1.0000
     1.0000   1.0000   1.0000   1.0000   0.0000   0.0000   0.0000   0.0000
     0.0000   0.0000   0.0000   0.0000   0.0000   0.0000   0.0000   0.0000
     0.0000   0.0000   0.0000   0.0000   0.0000   0.0000   0.0000   0.0000
     0.0000   0.0000   0.0000   0.0000   0.0000   0.0000   0.0000   0.0000
     0.0000   0.0000   0.0000   0.0000   0.0000   0.0000   0.0000   0.0000
     0.0000   0.0000   0.0000   0.0000   0.0000   0.0000   0.0000   0.0000
     0.0000   0.0000   0.0000   0.0000   0.0000   0.0000   0.0000   0.0000
     0.0000   0.0000   0.0000   0.0000   0.0000

[...]

          k =-0.5000-0.5000-0.5000 (269968 PWs)   bands (ev):

[...]

 ------ SPIN DOWN ----------

[...]

          k = 0.2500-0.5000-0.5000 (269956 PWs)   bands (ev):

[...]

          k =-0.5000-0.5000-0.5000 (269968 PWs)   bands (ev):

   -87.4580 -50.7924 -50.7924 -50.7924  -7.0334  -7.0311  -7.0311  -7.0311
    -7.0194  -7.0194  -7.0194  -6.9488  -6.4114  -6.4114  -6.4114  -6.4108
    -6.4108  -6.4108  -6.4108  -6.4108  -6.4102  -6.4091  -6.4091  -6.4091
    -6.4049  -6.4049  -6.4049  -6.4036  -6.4036  -6.4036  -6.4034  -6.4034
    -6.3369  -6.3212  -6.3212  -6.3212  -0.6012  -0.5985  -0.5985  -0.5985
    -0.5966  -0.5966  -0.5966  -0.5906  -0.5870  -0.5870  -0.5870  -0.5865
    -0.5865  -0.5852  -0.5852  -0.5852  -0.5828  -0.5828  -0.5828  -0.5825
    -0.5825  -0.5726  -0.5726  -0.5726  -0.5687  -0.5673  -0.5673  -0.5672
    -0.5672  -0.5672  -0.5667  -0.5667  -0.5667  -0.5658  -0.5658  -0.5658
    -0.5640  -0.5640  -0.5640  -0.5616  -0.5616  -0.5616  -0.5270  -0.5107
    -0.5107  -0.5040  -0.5040  -0.5040  -0.4335  -0.4335  -0.4335  -0.4333
    -0.4311  -0.4311  -0.4311  -0.4308  -0.4308  -0.4308  -0.4307  -0.4307
    -0.4292  -0.4292  -0.4292  -0.4284  -0.4284  -0.4284  -0.4279  -0.4156
    -0.4156  -0.3586  -0.3586  -0.3586  -0.3204  -0.3204  -0.3204  -0.3200
    -0.3200  -0.3200  -0.3195  -0.3195  -0.3177  -0.3177  -0.3177  -0.3177
    -0.3173  -0.3173  -0.3173  -0.3168  -0.3168  -0.3168  -0.2891  -0.2876
    -0.2876  -0.1753  -0.1753  -0.1753  -0.1696  -0.1696  -0.1690  -0.1690
    -0.1690  -0.1668  -0.1668  -0.1668  -0.1650  -0.1650  -0.1650  -0.1480
    -0.1480  -0.1480  -0.1473  -0.1473  -0.1304  -0.1304  -0.1304  -0.1292
    -0.1292  -0.1287  -0.1272  -0.1272  -0.1272  -0.1260  -0.1260  -0.1260
    -0.1257  -0.1257  -0.1257  -0.1245  -0.1232  -0.1232  -0.1232  -0.0813
    -0.0813  -0.0813  -0.0230  -0.0230  -0.0114  -0.0114  -0.0114  -0.0100
    -0.0100  -0.0100  -0.0095  -0.0095  -0.0094  -0.0090  -0.0090  -0.0090
    -0.0078  -0.0078  -0.0078  -0.0057  -0.0057  -0.0057   0.0290   1.1103
     1.1103   1.1103   1.1549   1.1549   1.1837   1.1837   1.1837   1.1850
     1.1852   1.1852   1.1852   1.1866   1.1866   1.1887   1.1887   1.1887
     1.1941   1.1941   1.1941   1.2172   1.2172   1.2172   1.6856   2.6611
     2.6611   2.6611   2.7888   2.7998   2.7998   2.7998   2.9058   3.0810
     3.0810   3.1589   3.1589   3.1589   3.2445   3.2445   3.2445   3.2445
     3.2451   3.2451   3.2468   3.2468   3.2468   3.2469   3.2469   3.2469
     3.2490   3.2490   3.2490   3.2946   3.2946   3.2946   3.4159   3.8648
     3.8648   3.8648   3.9604   3.9604   4.0243   4.0255   4.0255   4.0255
     4.0277   4.0277   4.0283   4.0283   4.0283   4.0307   4.0307   4.0307
     4.0316   4.0436   4.0436   4.0436   4.0509   4.0509   4.0509   4.8205
     4.8205   4.8205   5.0121   5.0121   5.1177   5.1177   5.1177   5.1177
     5.1177   5.1239   5.1239   5.1239   5.1262   5.1262   5.1262   5.7654
     5.7654   7.1139   7.1139   7.1139   8.9694   8.9712   8.9712   8.9712
     8.9838   8.9838   8.9838   9.1478   9.8802   9.8802   9.8802   9.8838
     9.8838   9.8838   9.8841   9.8841   9.8851   9.8866   9.8866   9.8866
     9.8875   9.8875   9.8875   9.8903   9.8903   9.8903   9.9937   9.9937
    10.0398  10.0398  10.0398  10.3843  11.4877  11.4877  11.4877  11.4889
    11.4889  11.4889  11.4907  11.4907  11.4914  11.4922  11.4922  11.4922
    11.4950  11.4950  11.4950  11.4981  11.4981  11.5025  11.5025  11.5025
    11.6377  11.6377  11.6377  12.1501  12.4496

     occupation numbers
     1.0000   1.0000   1.0000   1.0000   1.0000   1.0000   1.0000   1.0000
     1.0000   1.0000   1.0000   1.0000   1.0000   1.0000   1.0000   1.0000
     1.0000   1.0000   1.0000   1.0000   1.0000   1.0000   1.0000   1.0000
     1.0000   1.0000   1.0000   1.0000   1.0000   1.0000   1.0000   1.0000
     1.0000   1.0000   1.0000   1.0000   1.0000   1.0000   1.0000   1.0000
     1.0000   1.0000   1.0000   1.0000   1.0000   1.0000   1.0000   1.0000
     1.0000   1.0000   1.0000   1.0000   1.0000   1.0000   1.0000   1.0000
     1.0000   1.0000   1.0000   1.0000   1.0000   1.0000   1.0000   1.0000
     1.0000   1.0000   1.0000   1.0000   1.0000   1.0000   1.0000   1.0000
     1.0000   1.0000   1.0000   1.0000   1.0000   1.0000   1.0000   1.0000
     1.0000   1.0000   1.0000   1.0000   1.0000   1.0000   1.0000   1.0000
     1.0000   1.0000   1.0000   1.0000   1.0000   1.0000   1.0000   1.0000
     1.0000   1.0000   1.0000   1.0000   1.0000   1.0000   1.0000   1.0000
     1.0000   1.0000   1.0000   1.0000   1.0000   1.0000   1.0000   1.0000
     1.0000   1.0000   1.0000   1.0000   1.0000   1.0000   1.0000   1.0000
     1.0000   1.0000   1.0000   1.0000   1.0000   1.0000   1.0000   1.0000
     1.0000   1.0000   1.0000   1.0000   1.0000   1.0000   1.0000   1.0000
     1.0000   1.0000   1.0000   1.0000   1.0000   1.0000   1.0000   1.0000
     1.0000   1.0000   1.0000   1.0000   1.0000   1.0000   1.0000   1.0000
     1.0000   1.0000   1.0000   1.0000   1.0000   1.0000   1.0000   1.0000
     1.0000   1.0000   1.0000   1.0000   1.0000   1.0000   1.0000   1.0000
     1.0000   1.0000   1.0000   1.0000   1.0000   1.0000   1.0000   1.0000
     1.0000   1.0000   1.0000   1.0000   1.0000   1.0000   1.0000   1.0000
     1.0000   1.0000   1.0000   1.0000   1.0000   1.0000   1.0000   1.0000
     1.0000   1.0000   1.0000   1.0000   1.0000   1.0000   1.0000   1.0000
     1.0000   1.0000   1.0000   1.0000   1.0000   1.0000   1.0000   1.0000
     1.0000   1.0000   1.0000   1.0000   1.0000   1.0000   1.0000   1.0000
     1.0000   1.0000   1.0000   1.0000   1.0000   1.0000   1.0000   1.0000
     1.0000   1.0000   1.0000   1.0000   1.0000   1.0000   1.0000   1.0000
     1.0000   1.0000   1.0000   1.0000   1.0000   1.0000   1.0000   1.0000
     1.0000   1.0000   1.0000   1.0000   1.0000   1.0000   1.0000   1.0000
     1.0000   1.0000   1.0000   1.0000   1.0000   1.0000   1.0000   1.0000
     1.0000   1.0000   1.0000   1.0000   1.0000   1.0000   1.0000   1.0000
     1.0000   1.0000   1.0000   1.0000   1.0000   1.0000   1.0000   1.0000
     1.0000   1.0000   1.0000   1.0000   1.0000   1.0000   1.0000   1.0000
     1.0000   1.0000   1.0000   1.0000   1.0000   1.0000   1.0000   1.0000
     1.0000   0.0000   0.0000   0.0000   0.0000   0.0000   0.0000   0.0000
     0.0000   0.0000   0.0000   0.0000   0.0000   0.0000   0.0000   0.0000
     0.0000   0.0000   0.0000   0.0000   0.0000   0.0000   0.0000   0.0000
     0.0000   0.0000   0.0000   0.0000   0.0000   0.0000   0.0000   0.0000
     0.0000   0.0000   0.0000   0.0000   0.0000   0.0000   0.0000   0.0000
     0.0000   0.0000   0.0000   0.0000   0.0000   0.0000   0.0000   0.0000
     0.0000   0.0000   0.0000   0.0000   0.0000   0.0000   0.0000   0.0000
     0.0000   0.0000   0.0000   0.0000   0.0000

     the Fermi energy is     6.1530 ev

!    total energy              =  -10057.27362200 Ry
     total all-electron energy =   -139694.995533 Ry
     estimated scf accuracy    <          2.8E-09 Ry
     smearing contrib. (-TS)   =      -0.00000000 Ry
     internal energy E=F+TS    =  -10057.27362200 Ry

     The total energy is F=E-TS. E is the sum of the following terms:
     one-electron contribution =   -2924.78918866 Ry
     hartree contribution      =    2036.33533406 Ry
     xc contribution           =   -1658.13236306 Ry
     ewald contribution        =   -2988.82110911 Ry
     one-center paw contrib.   =   -4521.86629523 Ry
      -> PAW hartree energy AE =     123.27738005 Ry
      -> PAW hartree energy PS =    -122.63552056 Ry
      -> PAW xc energy AE      =    -143.20939140 Ry
      -> PAW xc energy PS      =      47.14799610 Ry
      -> total E_H with PAW    =    2036.97719354 Ry
      -> total E_XC with PAW   =   -1754.19375836 Ry

     total magnetization       =     3.00 Bohr mag/cell
     absolute magnetization    =     3.03 Bohr mag/cell

     convergence has been achieved in  16 iterations

     Writing all to output data dir ./out/Co_q0_unrlxd.save/

     General routines

     Parallel routines

     PAW routines

   This run was terminated on:  18:15:39   6Jul2024

   JOB DONE.