     Program PWSCF v.7.2 starts on 25Jul2024 at  8:45:42

     Reading input from 1.Cu_vac_in_ZnS.scf.qp1.unrlxd.U6.in

     Current dimensions of program PWSCF are:
     Max number of different atomic species (ntypx) = 10
     Max number of k-points (npk) =  40000
     Max angular momentum in pseudopotentials (lmaxx) =  4
     file S.pbe-n-kjpaw_psl.1.0.0.UPF: wavefunction(s)  3S 3P renormalized
     file Zn.pbe-dnl-kjpaw_psl.1.0.0.UPF: wavefunction(s)  4S 3D renormalized
     file Cu.pbe-spn-kjpaw_psl.1.0.0.UPF: wavefunction(s)  4S 3P 3D renormalized

     K-points division:     npool     =      13
     R & G space division:  proc/nbgrp/npool/nimage =     112
     Subspace diagonalization in iterative solution of the eigenvalue problem:
     one sub-group per band group will be used

     Using Slab Decomposition

     bravais-lattice index     =            1
     lattice parameter (alat)  =      20.5686  a.u.
     unit-cell volume          =    8701.8437 (a.u.)^3
     number of atoms/cell      =           63
     number of atomic types    =            3
     number of electrons       =       576.00
     number of Kohn-Sham states=          346
     kinetic-energy cutoff     =     150.0000  Ry
     charge density cutoff     =     600.0000  Ry
     scf convergence threshold =      1.0E-08
     mixing beta               =       0.7000
     number of iterations used =            8  plain     mixing
     Exchange-correlation= SLA  PW   PBX  PBC
                           (   1   4   3   4   0   0   0)
     Hubbard projectors: ortho-atomic
     Hubbard parameters of DFT+U (Dudarev formulation) in eV:
     U(Zn-3d) =  7.0000
     U(Cu-3d) =  6.0000

     Internal variables: lda_plus_u = T, lda_plus_u_kind = 0

     celldm(1)=  20.568554  celldm(2)=   0.000000  celldm(3)=   0.000000
     celldm(4)=   0.000000  celldm(5)=   0.000000  celldm(6)=   0.000000

     crystal axes: (cart. coord. in units of alat)
               a(1) = (   1.000000   0.000000   0.000000 )
               a(2) = (   0.000000   1.000000   0.000000 )
               a(3) = (   0.000000   0.000000   1.000000 )

     reciprocal axes: (cart. coord. in units 2 pi/alat)
               b(1) = (  1.000000  0.000000  0.000000 )
               b(2) = (  0.000000  1.000000  0.000000 )
               b(3) = (  0.000000  0.000000  1.000000 )

     PseudoPot. # 1 for S  read from file:
     /arf/home/amuhaymin/pseudo/S.pbe-n-kjpaw_psl.1.0.0.UPF
     MD5 check sum: fb45dfebcf3e72a4e1bd4a866ec2e262
     Pseudo is Projector augmented-wave + core cor, Zval =  6.0
     Generated using &quot;atomic&quot; code by A. Dal Corso  v.6.3
     Shape of augmentation charge: PSQ
     Using radial grid of 1151 points,  6 beta functions with:
                l(1) =   0
                l(2) =   0
                l(3) =   1
                l(4) =   1
                l(5) =   2
                l(6) =   2
     Q(r) pseudized with 0 coefficients

     PseudoPot. # 2 for Zn read from file:
     /arf/home/amuhaymin/pseudo/Zn.pbe-dnl-kjpaw_psl.1.0.0.UPF
     MD5 check sum: c608214d9520ac179f507641260889e3
     Pseudo is Projector augmented-wave + core cor, Zval = 12.0
     Generated using &quot;atomic&quot; code by A. Dal Corso  v.6.2.2
     Shape of augmentation charge: PSQ
     Using radial grid of 1201 points,  6 beta functions with:
                l(1) =   0
                l(2) =   0
                l(3) =   1
                l(4) =   1
                l(5) =   2
                l(6) =   2
     Q(r) pseudized with 0 coefficients

     PseudoPot. # 3 for Cu read from file:
     /arf/home/amuhaymin/pseudo/Cu.pbe-spn-kjpaw_psl.1.0.0.UPF
     MD5 check sum: e7cbaad2f97193e5fe23251a619a52b0
     Pseudo is Projector augmented-wave + core cor, Zval = 19.0
     Generated using &quot;atomic&quot; code by A. Dal Corso  v.6.3
     Shape of augmentation charge: PSQ
     Using radial grid of 1199 points,  6 beta functions with:
                l(1) =   0
                l(2) =   0
                l(3) =   1
                l(4) =   1
                l(5) =   2
                l(6) =   2
     Q(r) pseudized with 0 coefficients

     atomic species   valence    mass     pseudopotential
        S              6.00    32.06500     S ( 1.00)
        Zn            12.00    65.38000     Zn( 1.00)
        Cu            19.00    63.54600     Cu( 1.00)

     Starting magnetic structure
     atomic species   magnetization
        S            0.000
        Zn           0.000
        Cu           0.000

      6 Sym. Ops. (no inversion) found

                                    s                        frac. trans.

      isym =  1     identity

 cryst.   s( 1) = (     1          0          0      )
                  (     0          1          0      )
                  (     0          0          1      )

 cart.    s( 1) = (  1.0000000  0.0000000  0.0000000 )
                  (  0.0000000  1.0000000  0.0000000 )
                  (  0.0000000  0.0000000  1.0000000 )

      isym =  2     120 deg rotation - cart. axis [-1,-1,-1]

[...]

      isym =  3     120 deg rotation - cart. axis [1,1,1]

[...]

      isym =  4     inv. 180 deg rotation - cart. axis [1,-1,0]

[...]

      isym =  6     inv. 180 deg rotation - cart. axis [0,1,-1]

 cryst.   s( 6) = (     1          0          0      )
                  (     0          0          1      )
                  (     0          1          0      )

 cart.    s( 6) = (  1.0000000  0.0000000  0.0000000 )
                  (  0.0000000  0.0000000  1.0000000 )
                  (  0.0000000  1.0000000  0.0000000 )

     point group C_3v (3m)
     there are  3 classes
     the character table:

       E     2C3   3s_v
A_1    1.00  1.00  1.00
A_2    1.00  1.00 -1.00
E      2.00 -1.00  0.00

     the symmetry operations in each class and the name of the first element:

     E        1
          identity
     2C3      2    3
          120 deg rotation - cart. axis [-1,-1,-1]
     3s_v     4    5    6
          inv. 180 deg rotation - cart. axis [1,-1,0]

   Cartesian axes

     site n.     atom                  positions (alat units)
         1           Zn  tau(   1) = (   0.0000000   0.0000000   0.0000000  )
         2           Zn  tau(   2) = (   0.0000000   0.2500000   0.2500000  )
         3           Zn  tau(   3) = (   0.2500000   0.0000000   0.2500000  )
         4           Zn  tau(   4) = (   0.2500000   0.2500000   0.0000000  )
         5           S   tau(   5) = (   0.1250000   0.3750000   0.3750000  )
         6           S   tau(   6) = (   0.1250000   0.1250000   0.1250000  )
         7           S   tau(   7) = (   0.3750000   0.3750000   0.1250000  )
         8           S   tau(   8) = (   0.3750000   0.1250000   0.3750000  )
         9           Zn  tau(   9) = (   0.0000000   0.0000000   0.5000000  )
        10           Zn  tau(  10) = (   0.0000000   0.2500000   0.7500000  )
        11           Zn  tau(  11) = (   0.2500000   0.0000000   0.7500000  )
        12           Zn  tau(  12) = (   0.2500000   0.2500000   0.5000000  )
        13           S   tau(  13) = (   0.1250000   0.3750000   0.8750000  )
        14           S   tau(  14) = (   0.1250000   0.1250000   0.6250000  )
        15           S   tau(  15) = (   0.3750000   0.3750000   0.6250000  )
        16           S   tau(  16) = (   0.3750000   0.1250000   0.8750000  )
        17           Zn  tau(  17) = (   0.0000000   0.5000000   0.0000000  )
        18           Zn  tau(  18) = (   0.0000000   0.7500000   0.2500000  )
        19           Zn  tau(  19) = (   0.2500000   0.5000000   0.2500000  )
        20           Zn  tau(  20) = (   0.2500000   0.7500000   0.0000000  )
        21           S   tau(  21) = (   0.1250000   0.8750000   0.3750000  )
        22           S   tau(  22) = (   0.1250000   0.6250000   0.1250000  )
        23           S   tau(  23) = (   0.3750000   0.8750000   0.1250000  )
        24           S   tau(  24) = (   0.3750000   0.6250000   0.3750000  )
        25           Zn  tau(  25) = (   0.0000000   0.5000000   0.5000000  )
        26           Zn  tau(  26) = (   0.0000000   0.7500000   0.7500000  )
        27           Zn  tau(  27) = (   0.2500000   0.5000000   0.7500000  )
        28           Zn  tau(  28) = (   0.2500000   0.7500000   0.5000000  )
        29           S   tau(  29) = (   0.1250000   0.8750000   0.8750000  )
        30           S   tau(  30) = (   0.1250000   0.6250000   0.6250000  )
        31           S   tau(  31) = (   0.3750000   0.8750000   0.6250000  )
        32           S   tau(  32) = (   0.3750000   0.6250000   0.8750000  )
        33           Zn  tau(  33) = (   0.5000000   0.0000000   0.0000000  )
        34           Zn  tau(  34) = (   0.5000000   0.2500000   0.2500000  )
        35           Zn  tau(  35) = (   0.7500000   0.0000000   0.2500000  )
        36           Zn  tau(  36) = (   0.7500000   0.2500000   0.0000000  )
        37           S   tau(  37) = (   0.6250000   0.3750000   0.3750000  )
        38           S   tau(  38) = (   0.6250000   0.1250000   0.1250000  )
        39           S   tau(  39) = (   0.8750000   0.3750000   0.1250000  )
        40           S   tau(  40) = (   0.8750000   0.1250000   0.3750000  )
        41           Zn  tau(  41) = (   0.5000000   0.0000000   0.5000000  )
        42           Zn  tau(  42) = (   0.5000000   0.2500000   0.7500000  )
        43           Zn  tau(  43) = (   0.7500000   0.0000000   0.7500000  )
        44           Zn  tau(  44) = (   0.7500000   0.2500000   0.5000000  )
        45           S   tau(  45) = (   0.6250000   0.3750000   0.8750000  )
        46           S   tau(  46) = (   0.6250000   0.1250000   0.6250000  )
        47           S   tau(  47) = (   0.8750000   0.3750000   0.6250000  )
        48           S   tau(  48) = (   0.8750000   0.1250000   0.8750000  )
        49           Zn  tau(  49) = (   0.5000000   0.5000000   0.0000000  )
        50           Zn  tau(  50) = (   0.5000000   0.7500000   0.2500000  )
        51           Zn  tau(  51) = (   0.7500000   0.5000000   0.2500000  )
        52           Zn  tau(  52) = (   0.7500000   0.7500000   0.0000000  )
        53           S   tau(  53) = (   0.6250000   0.8750000   0.3750000  )
        54           S   tau(  54) = (   0.6250000   0.6250000   0.1250000  )
        55           S   tau(  55) = (   0.8750000   0.8750000   0.1250000  )
        56           S   tau(  56) = (   0.8750000   0.6250000   0.3750000  )
        57           Cu  tau(  57) = (   0.5000000   0.5000000   0.5000000  )
        58           Zn  tau(  58) = (   0.5000000   0.7500000   0.7500000  )
        59           Zn  tau(  59) = (   0.7500000   0.5000000   0.7500000  )
        60           Zn  tau(  60) = (   0.7500000   0.7500000   0.5000000  )
        61           S   tau(  61) = (   0.6250000   0.8750000   0.8750000  )
        62           S   tau(  62) = (   0.8750000   0.8750000   0.6250000  )
        63           S   tau(  63) = (   0.8750000   0.6250000   0.8750000  )

   Crystallographic axes

     site n.     atom                  positions (cryst. coord.)
         1           Zn  tau(   1) = (  0.0000000  0.0000000  0.0000000  )
[...]
     atom  29 (R=0.089)  charge=  3.9905  magn= -0.0000
     atom  30 (R=0.089)  charge=  3.9910  magn=  0.0000
     atom  31 (R=0.089)  charge=  3.9829  magn=  0.0000
     atom  32 (R=0.089)  charge=  3.9829  magn=  0.0000
     atom  33 (R=0.089)  charge= 10.1706  magn=  0.0000
     atom  34 (R=0.089)  charge= 10.1690  magn= -0.0000
     atom  35 (R=0.089)  charge= 10.1693  magn=  0.0000
     atom  36 (R=0.089)  charge= 10.1693  magn=  0.0000
     atom  37 (R=0.089)  charge=  3.9716  magn=  0.0000
     atom  38 (R=0.089)  charge=  3.9864  magn= -0.0000
     atom  39 (R=0.089)  charge=  3.9908  magn= -0.0000
     atom  40 (R=0.089)  charge=  3.9908  magn= -0.0000
     atom  41 (R=0.089)  charge= 10.1713  magn= -0.0000
     atom  42 (R=0.089)  charge= 10.1717  magn= -0.0000
     atom  43 (R=0.089)  charge= 10.1722  magn= -0.0000
     atom  44 (R=0.089)  charge= 10.1717  magn= -0.0000
     atom  45 (R=0.089)  charge=  3.9829  magn=  0.0000
     atom  46 (R=0.089)  charge=  3.9910  magn=  0.0000
     atom  47 (R=0.089)  charge=  3.9829  magn=  0.0000
     atom  48 (R=0.089)  charge=  3.9905  magn= -0.0000
     atom  49 (R=0.089)  charge= 10.1713  magn= -0.0000
     atom  50 (R=0.089)  charge= 10.1717  magn= -0.0000
     atom  51 (R=0.089)  charge= 10.1717  magn= -0.0000
     atom  52 (R=0.089)  charge= 10.1722  magn= -0.0000
     atom  53 (R=0.089)  charge=  3.9829  magn=  0.0000
     atom  54 (R=0.089)  charge=  3.9910  magn=  0.0000
     atom  55 (R=0.089)  charge=  3.9905  magn= -0.0000
     atom  56 (R=0.089)  charge=  3.9829  magn=  0.0000
     atom  57 (R=0.089)  charge= 17.4105  magn=  0.0000
     atom  58 (R=0.089)  charge= 10.1327  magn= -0.0000
     atom  59 (R=0.089)  charge= 10.1327  magn= -0.0000
     atom  60 (R=0.089)  charge= 10.1327  magn= -0.0000
     atom  61 (R=0.089)  charge=  3.9826  magn= -0.0000
     atom  62 (R=0.089)  charge=  3.9826  magn= -0.0000
     atom  63 (R=0.089)  charge=  3.9826  magn= -0.0000

     End of self-consistent calculation

 ------ SPIN UP ------------

          k = 0.0000 0.0000 0.0000 (269825 PWs)   bands (ev):

  -104.0576 -61.5715 -61.4307 -61.4307  -7.6097  -7.2889  -7.2889  -7.2571
    -7.1911  -7.1911  -7.1420  -7.1420  -7.1021  -7.0533  -6.9554  -6.9079
    -6.9079  -6.8892  -6.8892  -6.8448  -6.8269  -6.8269  -6.8160  -6.8160
    -6.7954  -6.7598  -6.6987  -6.6987  -6.6566  -6.5979  -6.5979  -6.5976
    -6.4385  -6.3100  -6.3100  -4.4281  -4.3979  -4.3979  -4.3948  -4.3804
    -4.3804  -4.3682  -4.3682  -4.3504  -4.3026  -4.2954  -4.2954  -4.2893
    -4.2893  -4.2824  -3.7706  -3.7706  -3.7559  -3.7435  -3.7312  -3.7312
    -3.7267  -3.7221  -3.7221  -3.7106  -3.7106  -3.7059  -3.7059  -3.7048
    -3.6983  -3.6917  -3.6917  -3.6881  -3.6855  -3.6844  -3.6844  -3.6811
    -3.6784  -3.6784  -3.6706  -3.6569  -3.6569  -3.6430  -3.6430  -3.6393
    -3.6373  -3.6373  -3.6260  -3.6260  -3.6246  -3.6178  -3.6166  -3.6166
    -3.6114  -3.6114  -3.6079  -3.6055  -3.5998  -3.5998  -3.5927  -3.5872
    -3.5872  -3.5840  -3.5840  -3.5814  -3.5765  -3.5620  -3.5615  -3.5558
    -3.5558  -3.5508  -3.5508  -3.5486  -3.5477  -3.5477  -3.5453  -3.5407
    -3.5407  -3.5393  -3.5386  -3.5386  -3.5376  -3.5271  -3.5271  -3.5244
    -3.5220  -3.5220  -3.5084  -3.5084  -3.5051  -3.5004  -3.4859  -3.4854
    -3.4854  -3.4849  -3.4790  -3.4790  -3.4641  -3.4641  -3.4557  -3.4557
    -3.4412  -3.4412  -3.4328  -3.4310  -3.4310  -3.4213  -3.4194  -3.3956
    -3.3956  -3.3902  -3.3882  -3.3882  -3.3734  -3.3734  -3.3692  -3.3688
    -3.3688  -3.3680  -3.3543  -3.3543  -3.3519  -3.3499  -3.3499  -3.3467
    -3.3467  -3.3433  -3.3384  -3.3260  -3.3260  -3.3099  -3.2374  -3.2374
    -3.2269  -3.1868  -3.1753  -3.1753  -3.1529  -3.1529  -3.1310  -3.1310
    -3.1157  -3.0480  -3.0427  -3.0427  -3.0128  -2.9801  -2.9801  -2.9230
    -2.8193  -2.8116  -2.8116  -2.8040  -2.7791  -2.7791   0.2371   0.3206
     0.3436   0.3436   0.6629   0.6629   0.6707   0.7890   0.8775   0.8775
     0.9098   0.9294   0.9294   1.1444   1.2325   1.2325   1.2688   1.2688
     1.3372   1.3424   1.3424   1.3447   1.4190   1.4190   1.8681   2.1056
     2.1056   2.2734   2.2734   2.3211   2.5047   2.5240   2.5295   2.5295
     2.5743   2.5743   2.6134   2.6643   2.6643   2.7030   2.7030   2.7120
     2.7305   2.7305   2.7462   2.8384   2.8429   2.8625   2.8625   2.8636
     2.8636   2.9271   3.0142   3.0231   3.0231   3.0755   3.0755   3.1956
     3.2055   3.2288   3.2288   3.2957   3.2957   3.5359   3.5359   3.6652
     4.0212   4.0334   4.0334   4.0671   4.1081   4.1081   4.1585   4.1585
     4.1660   4.2332   4.2718   4.2718   4.2897   4.3080   4.3080   4.3425
     4.3425   4.3822   4.4714   4.4714   4.4787   4.4857   4.5018   4.5018
     4.5702   4.6406   4.6406   4.9078   4.9078   5.1873   5.3810   5.3810
     5.7530   7.7775   8.0109   8.0109   8.7734   8.7861   8.7861   8.8679
     8.9478   8.9478   9.0500   9.2791   9.5536   9.5731   9.5731   9.9101
     9.9101   9.9794  10.0014  10.0014  10.0564  10.0566  10.0566  10.0917
    10.0991  10.0991  10.2202  10.2202  10.2365  10.2489  10.2618  10.2618
    10.2789  10.2789  10.3245  10.6079  10.6079  10.7282  11.1222  11.1775
    11.1775  11.2247  11.2247  11.3590  11.3940  11.3940  11.4088  11.6695
    11.6995  11.6995  11.8966  11.8997  11.8997  11.9083  12.0881  12.0890
    12.0896  12.1168

     occupation numbers
     1.0000   1.0000   1.0000   1.0000   1.0000   1.0000   1.0000   1.0000
     1.0000   1.0000   1.0000   1.0000   1.0000   1.0000   1.0000   1.0000
     1.0000   1.0000   1.0000   1.0000   1.0000   1.0000   1.0000   1.0000
     1.0000   1.0000   1.0000   1.0000   1.0000   1.0000   1.0000   1.0000
     1.0000   1.0000   1.0000   1.0000   1.0000   1.0000   1.0000   1.0000
     1.0000   1.0000   1.0000   1.0000   1.0000   1.0000   1.0000   1.0000
     1.0000   1.0000   1.0000   1.0000   1.0000   1.0000   1.0000   1.0000
     1.0000   1.0000   1.0000   1.0000   1.0000   1.0000   1.0000   1.0000
     1.0000   1.0000   1.0000   1.0000   1.0000   1.0000   1.0000   1.0000
     1.0000   1.0000   1.0000   1.0000   1.0000   1.0000   1.0000   1.0000
     1.0000   1.0000   1.0000   1.0000   1.0000   1.0000   1.0000   1.0000
     1.0000   1.0000   1.0000   1.0000   1.0000   1.0000   1.0000   1.0000
     1.0000   1.0000   1.0000   1.0000   1.0000   1.0000   1.0000   1.0000
     1.0000   1.0000   1.0000   1.0000   1.0000   1.0000   1.0000   1.0000
     1.0000   1.0000   1.0000   1.0000   1.0000   1.0000   1.0000   1.0000
     1.0000   1.0000   1.0000   1.0000   1.0000   1.0000   1.0000   1.0000
     1.0000   1.0000   1.0000   1.0000   1.0000   1.0000   1.0000   1.0000
     1.0000   1.0000   1.0000   1.0000   1.0000   1.0000   1.0000   1.0000
     1.0000   1.0000   1.0000   1.0000   1.0000   1.0000   1.0000   1.0000
     1.0000   1.0000   1.0000   1.0000   1.0000   1.0000   1.0000   1.0000
     1.0000   1.0000   1.0000   1.0000   1.0000   1.0000   1.0000   1.0000
     1.0000   1.0000   1.0000   1.0000   1.0000   1.0000   1.0000   1.0000
     1.0000   1.0000   1.0000   1.0000   1.0000   1.0000   1.0000   1.0000
     1.0000   1.0000   1.0000   1.0000   1.0000   1.0000   1.0000   1.0000
     1.0000   1.0000   1.0000   1.0000   1.0000   1.0000   1.0000   1.0000
     1.0000   1.0000   1.0000   1.0000   1.0000   1.0000   1.0000   1.0000
     1.0000   1.0000   1.0000   1.0000   1.0000   1.0000   1.0000   1.0000
     1.0000   1.0000   1.0000   1.0000   1.0000   1.0000   1.0000   1.0000
     1.0000   1.0000   1.0000   1.0000   1.0000   1.0000   1.0000   1.0000
     1.0000   1.0000   1.0000   1.0000   1.0000   1.0000   1.0000   1.0000
     1.0000   1.0000   1.0000   1.0000   1.0000   1.0000   1.0000   1.0000
     1.0000   1.0000   1.0000   1.0000   1.0000   1.0000   1.0000   1.0000
     1.0000   1.0000   1.0000   1.0000   1.0000   1.0000   1.0000   1.0000
     1.0000   1.0000   1.0000   1.0000   1.0000   1.0000   1.0000   1.0000
     1.0000   1.0000   1.0000   1.0000   1.0000   1.0000   1.0000   1.0000
     1.0000   1.0000   1.0000   1.0000   1.0000   1.0000   1.0000   1.0000
     0.0000   0.0000   0.0000   0.0000   0.0000   0.0000   0.0000   0.0000
     0.0000   0.0000   0.0000   0.0000   0.0000   0.0000   0.0000   0.0000
     0.0000   0.0000   0.0000   0.0000   0.0000   0.0000   0.0000   0.0000
     0.0000   0.0000   0.0000   0.0000   0.0000   0.0000   0.0000   0.0000
     0.0000   0.0000   0.0000   0.0000   0.0000   0.0000   0.0000   0.0000
     0.0000   0.0000   0.0000   0.0000   0.0000   0.0000   0.0000   0.0000
     0.0000   0.0000   0.0000   0.0000   0.0000   0.0000   0.0000   0.0000
     0.0000   0.0000

[...]

          k =-0.5000-0.5000-0.5000 (269968 PWs)   bands (ev):

[...]

 ------ SPIN DOWN ----------

[...]

          k =-0.2500 0.0000 0.2500 (269929 PWs)   bands (ev):

[...]

          k = 0.2500-0.2500-0.5000 (269988 PWs)   bands (ev):

  -104.0576 -61.5715 -61.4307 -61.4307  -7.4969  -7.4090  -7.3301  -7.2925
    -7.2424  -7.1973  -7.1265  -7.0848  -7.0660  -7.0633  -6.9941  -6.9538
    -6.9349  -6.8825  -6.8496  -6.8331  -6.8162  -6.8064  -6.7781  -6.7687
    -6.7567  -6.7150  -6.6982  -6.6829  -6.6651  -6.6432  -6.6309  -6.6211
    -6.4282  -6.3196  -6.3161  -4.4277  -4.3978  -4.3977  -4.3932  -4.3803
    -4.3802  -4.3682  -4.3679  -4.3509  -4.3030  -4.2953  -4.2949  -4.2886
    -4.2882  -4.2833  -3.7656  -3.7640  -3.7492  -3.7439  -3.7381  -3.7330
    -3.7298  -3.7269  -3.7234  -3.7150  -3.7129  -3.7110  -3.7079  -3.7073
    -3.6997  -3.6962  -3.6918  -3.6882  -3.6857  -3.6806  -3.6765  -3.6720
    -3.6683  -3.6653  -3.6617  -3.6547  -3.6515  -3.6484  -3.6475  -3.6414
    -3.6406  -3.6348  -3.6324  -3.6283  -3.6254  -3.6233  -3.6180  -3.6124
    -3.6112  -3.6075  -3.6041  -3.6027  -3.6002  -3.5969  -3.5931  -3.5894
    -3.5891  -3.5858  -3.5808  -3.5773  -3.5743  -3.5726  -3.5707  -3.5670
    -3.5615  -3.5597  -3.5578  -3.5543  -3.5513  -3.5496  -3.5487  -3.5441
    -3.5393  -3.5353  -3.5335  -3.5296  -3.5269  -3.5257  -3.5223  -3.5188
    -3.5114  -3.5110  -3.5101  -3.5081  -3.5054  -3.5003  -3.4900  -3.4868
    -3.4781  -3.4768  -3.4747  -3.4734  -3.4672  -3.4664  -3.4539  -3.4529
    -3.4478  -3.4450  -3.4427  -3.4388  -3.4339  -3.4255  -3.4084  -3.3997
    -3.3993  -3.3915  -3.3866  -3.3850  -3.3831  -3.3772  -3.3708  -3.3636
    -3.3607  -3.3569  -3.3560  -3.3530  -3.3505  -3.3475  -3.3466  -3.3370
    -3.3361  -3.3335  -3.3312  -3.3303  -3.3276  -3.3142  -3.3075  -3.2739
    -3.2398  -3.2241  -3.1970  -3.1585  -3.1301  -3.1159  -3.0876  -3.0544
    -3.0433  -3.0344  -2.9972  -2.9932  -2.9739  -2.9465  -2.9388  -2.9283
    -2.9034  -2.8853  -2.8738  -2.8601  -2.8388  -2.8345   0.4440   0.5487
     0.6097   0.7110   0.7447   0.7611   0.7842   0.7905   0.8146   0.8298
     0.8411   0.8622   0.8851   0.9115   0.9212   0.9538   0.9826   1.1266
     1.1348   1.2438   1.3076   1.3438   1.3769   1.4203   1.4992   1.8579
     2.0281   2.1927   2.2612   2.2875   2.3139   2.3526   2.3952   2.4638
     2.4925   2.5665   2.5766   2.6249   2.6349   2.6985   2.7155   2.7730
     2.8116   2.8647   2.8964   2.9426   3.0498   3.1512   3.2084   3.2227
     3.2745   3.3155   3.3446   3.3593   3.3828   3.4405   3.4433   3.4691
     3.4815   3.5031   3.5258   3.5320   3.5635   3.5875   3.6053   3.6320
     3.6555   3.6997   3.7104   3.7616   3.7850   3.8115   3.8833   3.9028
     3.9545   3.9905   4.0259   4.0437   4.0978   4.1282   4.1421   4.2069
     4.2501   4.2907   4.3140   4.3399   4.4095   4.4977   4.6039   4.6785
     4.7159   4.7415   4.7984   4.8664   4.8963   4.9238   5.1742   5.2593
     6.0342   7.7748   7.8778   8.7595   8.9508   9.0786   9.1337   9.1782
     9.3861   9.4199   9.4811   9.5246   9.5774   9.6211   9.6442   9.6589
     9.6848   9.7563   9.7900   9.8404   9.8607   9.8913   9.9143   9.9928
    10.0030  10.0304  10.0818  10.1153  10.1426  10.1892  10.2233  10.3226
    10.3937  10.3991  10.4514  10.5968  10.7129  10.7696  10.8183  10.8424
    10.8815  10.9929  11.0527  11.1697  11.2655  11.3336  11.3452  11.4073
    11.4839  11.5316  11.5396  11.5464  11.6192  11.6245  11.6488  11.6725
    11.6843  11.7133

     occupation numbers
     1.0000   1.0000   1.0000   1.0000   1.0000   1.0000   1.0000   1.0000
     1.0000   1.0000   1.0000   1.0000   1.0000   1.0000   1.0000   1.0000
     1.0000   1.0000   1.0000   1.0000   1.0000   1.0000   1.0000   1.0000
     1.0000   1.0000   1.0000   1.0000   1.0000   1.0000   1.0000   1.0000
     1.0000   1.0000   1.0000   1.0000   1.0000   1.0000   1.0000   1.0000
     1.0000   1.0000   1.0000   1.0000   1.0000   1.0000   1.0000   1.0000
     1.0000   1.0000   1.0000   1.0000   1.0000   1.0000   1.0000   1.0000
     1.0000   1.0000   1.0000   1.0000   1.0000   1.0000   1.0000   1.0000
     1.0000   1.0000   1.0000   1.0000   1.0000   1.0000   1.0000   1.0000
     1.0000   1.0000   1.0000   1.0000   1.0000   1.0000   1.0000   1.0000
     1.0000   1.0000   1.0000   1.0000   1.0000   1.0000   1.0000   1.0000
     1.0000   1.0000   1.0000   1.0000   1.0000   1.0000   1.0000   1.0000
     1.0000   1.0000   1.0000   1.0000   1.0000   1.0000   1.0000   1.0000
     1.0000   1.0000   1.0000   1.0000   1.0000   1.0000   1.0000   1.0000
     1.0000   1.0000   1.0000   1.0000   1.0000   1.0000   1.0000   1.0000
     1.0000   1.0000   1.0000   1.0000   1.0000   1.0000   1.0000   1.0000
     1.0000   1.0000   1.0000   1.0000   1.0000   1.0000   1.0000   1.0000
     1.0000   1.0000   1.0000   1.0000   1.0000   1.0000   1.0000   1.0000
     1.0000   1.0000   1.0000   1.0000   1.0000   1.0000   1.0000   1.0000
     1.0000   1.0000   1.0000   1.0000   1.0000   1.0000   1.0000   1.0000
     1.0000   1.0000   1.0000   1.0000   1.0000   1.0000   1.0000   1.0000
     1.0000   1.0000   1.0000   1.0000   1.0000   1.0000   1.0000   1.0000
     1.0000   1.0000   1.0000   1.0000   1.0000   1.0000   1.0000   1.0000
     1.0000   1.0000   1.0000   1.0000   1.0000   1.0000   1.0000   1.0000
     1.0000   1.0000   1.0000   1.0000   1.0000   1.0000   1.0000   1.0000
     1.0000   1.0000   1.0000   1.0000   1.0000   1.0000   1.0000   1.0000
     1.0000   1.0000   1.0000   1.0000   1.0000   1.0000   1.0000   1.0000
     1.0000   1.0000   1.0000   1.0000   1.0000   1.0000   1.0000   1.0000
     1.0000   1.0000   1.0000   1.0000   1.0000   1.0000   1.0000   1.0000
     1.0000   1.0000   1.0000   1.0000   1.0000   1.0000   1.0000   1.0000
     1.0000   1.0000   1.0000   1.0000   1.0000   1.0000   1.0000   1.0000
     1.0000   1.0000   1.0000   1.0000   1.0000   1.0000   1.0000   1.0000
     1.0000   1.0000   1.0000   1.0000   1.0000   1.0000   1.0000   1.0000
     1.0000   1.0000   1.0000   1.0000   1.0000   1.0000   1.0000   1.0000
     1.0000   1.0000   1.0000   1.0000   1.0000   1.0000   1.0000   1.0000
     1.0000   1.0000   1.0000   1.0000   1.0000   1.0000   1.0000   1.0000
     0.0000   0.0000   0.0000   0.0000   0.0000   0.0000   0.0000   0.0000
     0.0000   0.0000   0.0000   0.0000   0.0000   0.0000   0.0000   0.0000
     0.0000   0.0000   0.0000   0.0000   0.0000   0.0000   0.0000   0.0000
     0.0000   0.0000   0.0000   0.0000   0.0000   0.0000   0.0000   0.0000
     0.0000   0.0000   0.0000   0.0000   0.0000   0.0000   0.0000   0.0000
     0.0000   0.0000   0.0000   0.0000   0.0000   0.0000   0.0000   0.0000
     0.0000   0.0000   0.0000   0.0000   0.0000   0.0000   0.0000   0.0000
     0.0000   0.0000

     the Fermi energy is     5.6573 ev

!    total energy              =  -10101.00984920 Ry
     total all-electron energy =   -139419.538897 Ry
     estimated scf accuracy    <          2.5E-09 Ry
     smearing contrib. (-TS)   =      -0.00000000 Ry
     internal energy E=F+TS    =  -10101.00984920 Ry

     The total energy is F=E-TS. E is the sum of the following terms:
     one-electron contribution =   -3090.68799474 Ry
     hartree contribution      =    2121.88606019 Ry
     xc contribution           =   -1660.98047738 Ry
     ewald contribution        =   -2984.70201120 Ry
     Hubbard energy            =       0.28092885 Ry
     one-center paw contrib.   =   -4486.80635490 Ry
      -> PAW hartree energy AE =     123.67318026 Ry
      -> PAW hartree energy PS =    -123.02561990 Ry
      -> PAW xc energy AE      =    -143.25949192 Ry
      -> PAW xc energy PS      =      47.19637707 Ry
      -> total E_H with PAW    =    2122.53362054 Ry
      -> total E_XC with PAW   =   -1757.04359223 Ry

     total magnetization       =    -0.00 Bohr mag/cell
     absolute magnetization    =     0.00 Bohr mag/cell

     convergence has been achieved in  14 iterations

     Writing all to output data dir ./out/Cu_vac_qp1_U6_unrlxd.save/

     General routines

     Parallel routines

     Hubbard U routines

     PAW routines

   This run was terminated on:   8:50:18  25Jul2024

   JOB DONE.