     Program PWSCF v.7.2 starts on 27Jun2024 at  2:11:50

     Waiting for input...
     Reading input from standard input

     Current dimensions of program PWSCF are:
     Max number of different atomic species (ntypx) = 10
     Max number of k-points (npk) =  40000
     Max angular momentum in pseudopotentials (lmaxx) =  4
     file S.pbe-n-kjpaw_psl.1.0.0.UPF: wavefunction(s)  3S 3P renormalized
     file Zn.pbe-dnl-kjpaw_psl.1.0.0.UPF: wavefunction(s)  4S 3D renormalized
     Found identity + (  0.0000  0.2500  0.2500) symmetry
     This is a supercell, fractional translations are disabled

     K-points division:     npool     =      10
     R & G space division:  proc/nbgrp/npool/nimage =     112
     Subspace diagonalization in iterative solution of the eigenvalue problem:
     one sub-group per band group will be used

     Using Slab Decomposition

     bravais-lattice index     =            1
     lattice parameter (alat)  =      20.5686  a.u.
     unit-cell volume          =    8701.8437 (a.u.)^3
     number of atoms/cell      =           64
     number of atomic types    =            2
     number of electrons       =       576.00
     number of Kohn-Sham states=          346
     kinetic-energy cutoff     =     150.0000  Ry
     charge density cutoff     =     600.0000  Ry
     scf convergence threshold =      1.0E-08
     mixing beta               =       0.7000
     number of iterations used =            8  plain     mixing
     Exchange-correlation= SLA  PW   PBX  PBC
                           (   1   4   3   4   0   0   0)

     celldm(1)=  20.568554  celldm(2)=   0.000000  celldm(3)=   0.000000
     celldm(4)=   0.000000  celldm(5)=   0.000000  celldm(6)=   0.000000

     crystal axes: (cart. coord. in units of alat)
               a(1) = (   1.000000   0.000000   0.000000 )
               a(2) = (   0.000000   1.000000   0.000000 )
               a(3) = (   0.000000   0.000000   1.000000 )

     reciprocal axes: (cart. coord. in units 2 pi/alat)
               b(1) = (  1.000000  0.000000  0.000000 )
               b(2) = (  0.000000  1.000000  0.000000 )
               b(3) = (  0.000000  0.000000  1.000000 )

     PseudoPot. # 1 for S  read from file:
     /arf/home/amuhaymin/pseudo/S.pbe-n-kjpaw_psl.1.0.0.UPF
     MD5 check sum: fb45dfebcf3e72a4e1bd4a866ec2e262
     Pseudo is Projector augmented-wave + core cor, Zval =  6.0
     Generated using &quot;atomic&quot; code by A. Dal Corso  v.6.3
     Shape of augmentation charge: PSQ
     Using radial grid of 1151 points,  6 beta functions with:
                l(1) =   0
                l(2) =   0
                l(3) =   1
                l(4) =   1
                l(5) =   2
                l(6) =   2
     Q(r) pseudized with 0 coefficients

     PseudoPot. # 2 for Zn read from file:
     /arf/home/amuhaymin/pseudo/Zn.pbe-dnl-kjpaw_psl.1.0.0.UPF
     MD5 check sum: c608214d9520ac179f507641260889e3
     Pseudo is Projector augmented-wave + core cor, Zval = 12.0
     Generated using &quot;atomic&quot; code by A. Dal Corso  v.6.2.2
     Shape of augmentation charge: PSQ
     Using radial grid of 1201 points,  6 beta functions with:
                l(1) =   0
                l(2) =   0
                l(3) =   1
                l(4) =   1
                l(5) =   2
                l(6) =   2
     Q(r) pseudized with 0 coefficients

     atomic species   valence    mass     pseudopotential
        S              6.00    32.06500     S ( 1.00)
        Zn            12.00    65.38000     Zn( 1.00)

     Starting magnetic structure
     atomic species   magnetization
        S            0.000
        Zn           0.000

     24 Sym. Ops. (no inversion) found

                                    s                        frac. trans.

      isym =  1     identity

 cryst.   s( 1) = (     1          0          0      )
                  (     0          1          0      )
                  (     0          0          1      )

 cart.    s( 1) = (  1.0000000  0.0000000  0.0000000 )
                  (  0.0000000  1.0000000  0.0000000 )
                  (  0.0000000  0.0000000  1.0000000 )

      isym =  2     180 deg rotation - cart. axis [0,0,1]

[...]

 cryst.   s( 9) = (     0          1          0      )
                  (     0          0          1      )
                  (     1          0          0      )

 cart.    s( 9) = (  0.0000000  0.0000000  1.0000000 )
                  (  1.0000000  0.0000000  0.0000000 )
                  (  0.0000000  1.0000000  0.0000000 )

[...]

 cryst.   s(10) = (     0         -1          0      )
                  (     0          0         -1      )
                  (     1          0          0      )

 cart.    s(10) = (  0.0000000  0.0000000  1.0000000 )
                  ( -1.0000000  0.0000000  0.0000000 )
                  (  0.0000000 -1.0000000  0.0000000 )

[...]

      isym = 12     120 deg rotation - cart. axis [-1,-1,1]

[...]

      isym = 13     inv. 180 deg rotation - cart. axis [1,1,0]

[...]

      isym = 24     inv.  90 deg rotation - cart. axis [1,0,0]

 cryst.   s(24) = (    -1          0          0      )
                  (     0          0         -1      )
                  (     0          1          0      )

 cart.    s(24) = ( -1.0000000  0.0000000  0.0000000 )
                  (  0.0000000  0.0000000  1.0000000 )
                  (  0.0000000 -1.0000000  0.0000000 )

     point group T_d (-43m)
     there are  5 classes
     the character table:

       E     8C3   3C2   6S4   6s_d
A_1    1.00  1.00  1.00  1.00  1.00
A_2    1.00  1.00  1.00 -1.00 -1.00
E      2.00 -1.00  2.00  0.00  0.00
T_1    3.00  0.00 -1.00  1.00 -1.00
T_2    3.00  0.00 -1.00 -1.00  1.00

     the symmetry operations in each class and the name of the first element:

     E        1
          identity
     8C3      5    7    8    6   12    9   10   11
          120 deg rotation - cart. axis [-1,-1,-1]
     3C2      2    3    4
          180 deg rotation - cart. axis [0,0,1]
     6S4     15   16   20   19   23   24
          inv.  90 deg rotation - cart. axis [0,0,-1]
     6s_d    13   14   17   18   21   22
          inv. 180 deg rotation - cart. axis [1,1,0]

   Cartesian axes

     site n.     atom                  positions (alat units)
         1           Zn  tau(   1) = (   0.0000000   0.0000000   0.0000000  )
         2           Zn  tau(   2) = (   0.0000000   0.2500000   0.2500000  )
         3           Zn  tau(   3) = (   0.2500000   0.0000000   0.2500000  )
         4           Zn  tau(   4) = (   0.2500000   0.2500000   0.0000000  )
         5           S   tau(   5) = (   0.1250000   0.3750000   0.3750000  )
         6           S   tau(   6) = (   0.1250000   0.1250000   0.1250000  )
         7           S   tau(   7) = (   0.3750000   0.3750000   0.1250000  )
         8           S   tau(   8) = (   0.3750000   0.1250000   0.3750000  )
         9           Zn  tau(   9) = (   0.0000000   0.0000000   0.5000000  )
        10           Zn  tau(  10) = (   0.0000000   0.2500000   0.7500000  )
        11           Zn  tau(  11) = (   0.2500000   0.0000000   0.7500000  )
        12           Zn  tau(  12) = (   0.2500000   0.2500000   0.5000000  )
        13           S   tau(  13) = (   0.1250000   0.3750000   0.8750000  )
        14           S   tau(  14) = (   0.1250000   0.1250000   0.6250000  )
        15           S   tau(  15) = (   0.3750000   0.3750000   0.6250000  )
        16           S   tau(  16) = (   0.3750000   0.1250000   0.8750000  )
        17           Zn  tau(  17) = (   0.0000000   0.5000000   0.0000000  )
        18           Zn  tau(  18) = (   0.0000000   0.7500000   0.2500000  )
        19           Zn  tau(  19) = (   0.2500000   0.5000000   0.2500000  )
        20           Zn  tau(  20) = (   0.2500000   0.7500000   0.0000000  )
        21           S   tau(  21) = (   0.1250000   0.8750000   0.3750000  )
        22           S   tau(  22) = (   0.1250000   0.6250000   0.1250000  )
        23           S   tau(  23) = (   0.3750000   0.8750000   0.1250000  )
        24           S   tau(  24) = (   0.3750000   0.6250000   0.3750000  )
        25           Zn  tau(  25) = (   0.0000000   0.5000000   0.5000000  )
        26           Zn  tau(  26) = (   0.0000000   0.7500000   0.7500000  )
        27           Zn  tau(  27) = (   0.2500000   0.5000000   0.7500000  )
        28           Zn  tau(  28) = (   0.2500000   0.7500000   0.5000000  )
        29           S   tau(  29) = (   0.1250000   0.8750000   0.8750000  )
        30           S   tau(  30) = (   0.1250000   0.6250000   0.6250000  )
        31           S   tau(  31) = (   0.3750000   0.8750000   0.6250000  )
        32           S   tau(  32) = (   0.3750000   0.6250000   0.8750000  )
        33           Zn  tau(  33) = (   0.5000000   0.0000000   0.0000000  )
        34           Zn  tau(  34) = (   0.5000000   0.2500000   0.2500000  )
        35           Zn  tau(  35) = (   0.7500000   0.0000000   0.2500000  )
        36           Zn  tau(  36) = (   0.7500000   0.2500000   0.0000000  )
        37           S   tau(  37) = (   0.6250000   0.3750000   0.3750000  )
        38           S   tau(  38) = (   0.6250000   0.1250000   0.1250000  )
        39           S   tau(  39) = (   0.8750000   0.3750000   0.1250000  )
        40           S   tau(  40) = (   0.8750000   0.1250000   0.3750000  )
        41           Zn  tau(  41) = (   0.5000000   0.0000000   0.5000000  )
        42           Zn  tau(  42) = (   0.5000000   0.2500000   0.7500000  )
        43           Zn  tau(  43) = (   0.7500000   0.0000000   0.7500000  )
        44           Zn  tau(  44) = (   0.7500000   0.2500000   0.5000000  )
        45           S   tau(  45) = (   0.6250000   0.3750000   0.8750000  )
        46           S   tau(  46) = (   0.6250000   0.1250000   0.6250000  )
        47           S   tau(  47) = (   0.8750000   0.3750000   0.6250000  )
        48           S   tau(  48) = (   0.8750000   0.1250000   0.8750000  )
        49           Zn  tau(  49) = (   0.5000000   0.5000000   0.0000000  )
        50           Zn  tau(  50) = (   0.5000000   0.7500000   0.2500000  )
        51           Zn  tau(  51) = (   0.7500000   0.5000000   0.2500000  )
        52           Zn  tau(  52) = (   0.7500000   0.7500000   0.0000000  )
        53           S   tau(  53) = (   0.6250000   0.8750000   0.3750000  )
        54           S   tau(  54) = (   0.6250000   0.6250000   0.1250000  )
        55           S   tau(  55) = (   0.8750000   0.8750000   0.1250000  )
        56           S   tau(  56) = (   0.8750000   0.6250000   0.3750000  )
        57           Zn  tau(  57) = (   0.5000000   0.5000000   0.5000000  )
        58           Zn  tau(  58) = (   0.5000000   0.7500000   0.7500000  )
        59           Zn  tau(  59) = (   0.7500000   0.5000000   0.7500000  )
        60           Zn  tau(  60) = (   0.7500000   0.7500000   0.5000000  )
        61           S   tau(  61) = (   0.6250000   0.8750000   0.8750000  )
        62           S   tau(  62) = (   0.6250000   0.6250000   0.6250000  )
        63           S   tau(  63) = (   0.8750000   0.8750000   0.6250000  )
[...]
     atom  29 (R=0.089)  charge=  3.9935  magn=  0.0000
     atom  30 (R=0.089)  charge=  3.9935  magn=  0.0000
     atom  31 (R=0.089)  charge=  3.9935  magn=  0.0000
     atom  32 (R=0.089)  charge=  3.9935  magn=  0.0000
     atom  33 (R=0.089)  charge= 10.1599  magn=  0.0000
     atom  34 (R=0.089)  charge= 10.1596  magn= -0.0000
     atom  35 (R=0.089)  charge= 10.1596  magn=  0.0000
     atom  36 (R=0.089)  charge= 10.1596  magn=  0.0000
     atom  37 (R=0.089)  charge=  3.9935  magn=  0.0000
     atom  38 (R=0.089)  charge=  3.9935  magn= -0.0000
     atom  39 (R=0.089)  charge=  3.9935  magn= -0.0000
     atom  40 (R=0.089)  charge=  3.9935  magn= -0.0000
     atom  41 (R=0.089)  charge= 10.1599  magn= -0.0000
     atom  42 (R=0.089)  charge= 10.1596  magn= -0.0000
     atom  43 (R=0.089)  charge= 10.1596  magn=  0.0000
     atom  44 (R=0.089)  charge= 10.1596  magn= -0.0000
     atom  45 (R=0.089)  charge=  3.9935  magn=  0.0000
     atom  46 (R=0.089)  charge=  3.9935  magn=  0.0000
     atom  47 (R=0.089)  charge=  3.9935  magn=  0.0000
     atom  48 (R=0.089)  charge=  3.9935  magn=  0.0000
     atom  49 (R=0.089)  charge= 10.1599  magn= -0.0000
     atom  50 (R=0.089)  charge= 10.1596  magn= -0.0000
     atom  51 (R=0.089)  charge= 10.1596  magn= -0.0000
     atom  52 (R=0.089)  charge= 10.1596  magn=  0.0000
     atom  53 (R=0.089)  charge=  3.9935  magn=  0.0000
     atom  54 (R=0.089)  charge=  3.9935  magn=  0.0000
     atom  55 (R=0.089)  charge=  3.9935  magn=  0.0000
     atom  56 (R=0.089)  charge=  3.9935  magn=  0.0000
     atom  57 (R=0.089)  charge= 10.1599  magn= -0.0000
     atom  58 (R=0.089)  charge= 10.1596  magn= -0.0000
     atom  59 (R=0.089)  charge= 10.1596  magn= -0.0000
     atom  60 (R=0.089)  charge= 10.1596  magn= -0.0000
     atom  61 (R=0.089)  charge=  3.9935  magn= -0.0000
     atom  62 (R=0.089)  charge=  3.9935  magn=  0.0000
     atom  63 (R=0.089)  charge=  3.9935  magn= -0.0000
     atom  64 (R=0.089)  charge=  3.9935  magn= -0.0000

     End of self-consistent calculation

 ------ SPIN UP ------------

          k = 0.0000 0.0000 0.0000 (269825 PWs)   bands (ev):

    -7.4622  -6.9203  -6.9203  -6.9203  -6.9203  -6.9203  -6.9203  -6.5968
    -6.5968  -6.5968  -6.5968  -6.5968  -6.5968  -6.5968  -6.5968  -6.5968
    -6.5968  -6.5968  -6.5968  -6.5721  -6.5721  -6.5721  -6.5721  -6.2729
    -6.2729  -6.2729  -6.2673  -6.2673  -6.2673  -6.2673  -6.2673  -6.2673
    -0.7190  -0.7190  -0.7190  -0.7190  -0.7190  -0.7190  -0.6935  -0.6935
    -0.6935  -0.6755  -0.6755  -0.6755  -0.5641  -0.5641  -0.5641  -0.5641
    -0.5641  -0.5641  -0.5641  -0.5641  -0.5549  -0.5549  -0.5549  -0.5549
    -0.5549  -0.5549  -0.5549  -0.5549  -0.5549  -0.5549  -0.5549  -0.5549
    -0.5438  -0.5438  -0.5438  -0.5438  -0.5438  -0.5438  -0.5338  -0.5338
    -0.5338  -0.5338  -0.5338  -0.5338  -0.5338  -0.5338  -0.5338  -0.5338
    -0.5338  -0.5338  -0.5240  -0.5240  -0.5240  -0.5240  -0.5240  -0.5240
    -0.5240  -0.5239  -0.5239  -0.5239  -0.5239  -0.5239  -0.4029  -0.4029
    -0.4029  -0.4029  -0.4029  -0.4029  -0.3978  -0.3978  -0.3978  -0.3978
    -0.3978  -0.3978  -0.3978  -0.3978  -0.3978  -0.3978  -0.3978  -0.3978
    -0.3444  -0.3444  -0.3444  -0.3444  -0.3444  -0.3444  -0.2496  -0.2496
    -0.2496  -0.2496  -0.2496  -0.2496  -0.2315  -0.2315  -0.2315  -0.2315
    -0.2315  -0.2315  -0.2296  -0.2296  -0.2296  -0.2296  -0.2296  -0.2296
    -0.2082  -0.2081  -0.2081  -0.2081  -0.2081  -0.2081  -0.2081  -0.2081
    -0.2081  -0.2081  -0.2081  -0.2081  -0.1943  -0.1943  -0.1651  -0.1651
    -0.1651  -0.1651  -0.1651  -0.1651  -0.1651  -0.1651  -0.1582  -0.1582
    -0.1582  -0.1582  -0.1582  -0.1582  -0.1352  -0.1351  -0.1351  -0.1351
    -0.1351  -0.1351  -0.1351  -0.1351  -0.1351  -0.1351  -0.1351  -0.1351
    -0.1222  -0.1222  -0.1222   0.0014   0.0014   0.0014   0.0015   0.0136
     0.0136   0.0136   0.1861   0.1861   0.1861   0.1861   0.1861   0.1861
     0.3803   0.3803   0.3803   0.3803   1.0508   1.0508   1.0508   1.0508
     1.0508   1.0508   1.0737   1.0737   1.0737   1.6637   1.6637   1.6637
     1.6637   1.6637   1.6637   1.6637   1.6637   1.6637   1.6637   1.6637
     1.6637   2.8903   2.8903   2.8903   2.8903   2.8903   2.8903   2.9126
     2.9126   2.9126   2.9126   2.9126   2.9126   3.0055   3.0055   3.0055
     3.0055   3.0055   3.0055   3.1129   3.1129   3.1129   3.1129   3.1129
     3.1129   3.1129   3.1129   3.1129   3.1129   3.1129   3.1129   3.3950
     3.3950   3.3950   3.3950   3.3950   3.3950   4.3509   4.3509   4.3509
     4.3509   4.3509   4.3509   4.3509   4.3509   4.3509   4.3509   4.3509
     4.3509   4.6707   4.6707   4.6707   4.6707   4.6707   4.6707   4.6707
     4.6707   4.6707   4.6707   4.6707   4.6707   4.7065   4.7065   4.7065
     4.7065   4.7065   4.7065   4.7065   4.7065   5.5451   5.5451   5.5451
     7.5516   8.7970   8.7970   8.7970   8.7970   8.9889   8.9889   8.9889
     9.6026   9.6026   9.6026   9.9705   9.9705   9.9705   9.9705   9.9705
     9.9705  10.1013  10.1013  10.1013  10.1013  10.1013  10.1013  10.3043
    10.3043  10.3043  10.3043  10.3043  10.3043  10.3043  10.3043  10.3043
    10.3043  10.3043  10.3043  11.2375  11.2375  11.2375  11.2375  11.2375
    11.2375  11.4631  11.4631  11.4631  11.4631  11.4631  11.4631  11.9191
    11.9192  12.1760  12.1784  12.1784  12.1784  12.1784  12.1784  12.1784
    12.1784  12.1784

     occupation numbers
     1.0000   1.0000   1.0000   1.0000   1.0000   1.0000   1.0000   1.0000
     1.0000   1.0000   1.0000   1.0000   1.0000   1.0000   1.0000   1.0000
     1.0000   1.0000   1.0000   1.0000   1.0000   1.0000   1.0000   1.0000
     1.0000   1.0000   1.0000   1.0000   1.0000   1.0000   1.0000   1.0000
     1.0000   1.0000   1.0000   1.0000   1.0000   1.0000   1.0000   1.0000
     1.0000   1.0000   1.0000   1.0000   1.0000   1.0000   1.0000   1.0000
     1.0000   1.0000   1.0000   1.0000   1.0000   1.0000   1.0000   1.0000
     1.0000   1.0000   1.0000   1.0000   1.0000   1.0000   1.0000   1.0000
     1.0000   1.0000   1.0000   1.0000   1.0000   1.0000   1.0000   1.0000
     1.0000   1.0000   1.0000   1.0000   1.0000   1.0000   1.0000   1.0000
     1.0000   1.0000   1.0000   1.0000   1.0000   1.0000   1.0000   1.0000
     1.0000   1.0000   1.0000   1.0000   1.0000   1.0000   1.0000   1.0000
     1.0000   1.0000   1.0000   1.0000   1.0000   1.0000   1.0000   1.0000
     1.0000   1.0000   1.0000   1.0000   1.0000   1.0000   1.0000   1.0000
     1.0000   1.0000   1.0000   1.0000   1.0000   1.0000   1.0000   1.0000
     1.0000   1.0000   1.0000   1.0000   1.0000   1.0000   1.0000   1.0000
     1.0000   1.0000   1.0000   1.0000   1.0000   1.0000   1.0000   1.0000
     1.0000   1.0000   1.0000   1.0000   1.0000   1.0000   1.0000   1.0000
     1.0000   1.0000   1.0000   1.0000   1.0000   1.0000   1.0000   1.0000
     1.0000   1.0000   1.0000   1.0000   1.0000   1.0000   1.0000   1.0000
     1.0000   1.0000   1.0000   1.0000   1.0000   1.0000   1.0000   1.0000
     1.0000   1.0000   1.0000   1.0000   1.0000   1.0000   1.0000   1.0000
     1.0000   1.0000   1.0000   1.0000   1.0000   1.0000   1.0000   1.0000
     1.0000   1.0000   1.0000   1.0000   1.0000   1.0000   1.0000   1.0000
     1.0000   1.0000   1.0000   1.0000   1.0000   1.0000   1.0000   1.0000
     1.0000   1.0000   1.0000   1.0000   1.0000   1.0000   1.0000   1.0000
     1.0000   1.0000   1.0000   1.0000   1.0000   1.0000   1.0000   1.0000
     1.0000   1.0000   1.0000   1.0000   1.0000   1.0000   1.0000   1.0000
     1.0000   1.0000   1.0000   1.0000   1.0000   1.0000   1.0000   1.0000
     1.0000   1.0000   1.0000   1.0000   1.0000   1.0000   1.0000   1.0000
     1.0000   1.0000   1.0000   1.0000   1.0000   1.0000   1.0000   1.0000
     1.0000   1.0000   1.0000   1.0000   1.0000   1.0000   1.0000   1.0000
     1.0000   1.0000   1.0000   1.0000   1.0000   1.0000   1.0000   1.0000
     1.0000   1.0000   1.0000   1.0000   1.0000   1.0000   1.0000   1.0000
     1.0000   1.0000   1.0000   1.0000   1.0000   1.0000   1.0000   1.0000
     1.0000   1.0000   1.0000   1.0000   1.0000   1.0000   1.0000   1.0000
     0.0000   0.0000   0.0000   0.0000   0.0000   0.0000   0.0000   0.0000
     0.0000   0.0000   0.0000   0.0000   0.0000   0.0000   0.0000   0.0000
     0.0000   0.0000   0.0000   0.0000   0.0000   0.0000   0.0000   0.0000
     0.0000   0.0000   0.0000   0.0000   0.0000   0.0000   0.0000   0.0000
     0.0000   0.0000   0.0000   0.0000   0.0000   0.0000   0.0000   0.0000
     0.0000   0.0000   0.0000   0.0000   0.0000   0.0000   0.0000   0.0000
     0.0000   0.0000   0.0000   0.0000   0.0000   0.0000   0.0000   0.0000
     0.0000   0.0000

[...]

          k =-0.5000-0.5000-0.5000 (269968 PWs)   bands (ev):

[...]

 ------ SPIN DOWN ----------

[...]

          k = 0.2500-0.5000-0.5000 (269956 PWs)   bands (ev):

[...]

          k =-0.5000-0.5000-0.5000 (269968 PWs)   bands (ev):

    -7.0562  -7.0562  -7.0562  -7.0562  -7.0562  -7.0562  -7.0562  -7.0562
    -6.4336  -6.4336  -6.4336  -6.4336  -6.4336  -6.4336  -6.4336  -6.4336
    -6.4336  -6.4336  -6.4336  -6.4336  -6.4336  -6.4336  -6.4336  -6.4336
    -6.4336  -6.4336  -6.4336  -6.4336  -6.4336  -6.4336  -6.4336  -6.4336
    -0.6250  -0.6250  -0.6250  -0.6250  -0.6250  -0.6250  -0.6250  -0.6250
    -0.6107  -0.6107  -0.6107  -0.6107  -0.6107  -0.6107  -0.6107  -0.6107
    -0.6107  -0.6107  -0.6107  -0.6107  -0.6107  -0.6107  -0.6107  -0.6107
    -0.5915  -0.5915  -0.5915  -0.5915  -0.5915  -0.5915  -0.5915  -0.5915
    -0.5915  -0.5915  -0.5915  -0.5915  -0.5915  -0.5915  -0.5915  -0.5915
    -0.5915  -0.5915  -0.5915  -0.5915  -0.5915  -0.5915  -0.5915  -0.5915
    -0.4567  -0.4567  -0.4567  -0.4567  -0.4567  -0.4567  -0.4567  -0.4567
    -0.4567  -0.4567  -0.4567  -0.4567  -0.4567  -0.4567  -0.4567  -0.4567
    -0.4567  -0.4567  -0.4567  -0.4567  -0.4566  -0.4566  -0.4566  -0.4566
    -0.3447  -0.3447  -0.3447  -0.3447  -0.3447  -0.3447  -0.3447  -0.3447
    -0.3447  -0.3447  -0.3447  -0.3447  -0.3447  -0.3447  -0.3447  -0.3447
    -0.3447  -0.3447  -0.3447  -0.3447  -0.3447  -0.3447  -0.3447  -0.3447
    -0.1926  -0.1926  -0.1926  -0.1926  -0.1926  -0.1926  -0.1926  -0.1926
    -0.1926  -0.1926  -0.1926  -0.1926  -0.1926  -0.1926  -0.1926  -0.1926
    -0.1525  -0.1525  -0.1525  -0.1525  -0.1525  -0.1525  -0.1525  -0.1525
    -0.1525  -0.1525  -0.1525  -0.1524  -0.1524  -0.1524  -0.1524  -0.1524
    -0.1524  -0.1524  -0.1524  -0.1524  -0.1524  -0.1524  -0.1524  -0.1524
    -0.0349  -0.0349  -0.0349  -0.0349  -0.0349  -0.0349  -0.0349  -0.0349
    -0.0349  -0.0349  -0.0349  -0.0349  -0.0349  -0.0349  -0.0349  -0.0349
    -0.0349  -0.0349  -0.0349  -0.0349  -0.0349  -0.0349  -0.0349  -0.0349
     1.1605   1.1605   1.1605   1.1605   1.1605   1.1605   1.1605   1.1605
     1.1605   1.1605   1.1605   1.1605   1.1605   1.1605   1.1605   1.1605
     1.1605   1.1605   1.1605   1.1605   1.1605   1.1605   1.1605   1.1605
     2.7629   2.7629   2.7629   2.7629   2.7629   2.7629   2.7629   2.7629
     3.2189   3.2189   3.2189   3.2189   3.2190   3.2190   3.2190   3.2190
     3.2190   3.2190   3.2190   3.2190   3.2190   3.2190   3.2190   3.2190
     3.2190   3.2190   3.2190   3.2190   3.2190   3.2190   3.2190   3.2190
     4.0018   4.0018   4.0018   4.0018   4.0018   4.0018   4.0018   4.0018
     4.0018   4.0018   4.0018   4.0018   4.0018   4.0018   4.0018   4.0018
     4.0018   4.0018   4.0018   4.0018   4.0018   4.0018   4.0018   4.0018
     5.0923   5.0923   5.0923   5.0923   5.0923   5.0923   5.0923   5.0923
     5.0923   5.0923   5.0923   5.0923   5.0923   5.0923   5.0923   5.0923
     8.9406   8.9406   8.9406   8.9406   8.9406   8.9406   8.9406   8.9406
     9.8558   9.8558   9.8558   9.8558   9.8558   9.8558   9.8558   9.8558
     9.8558   9.8558   9.8558   9.8558   9.8558   9.8558   9.8558   9.8558
     9.8558   9.8558   9.8558   9.8558   9.8558   9.8558   9.8558   9.8558
    11.4620  11.4620  11.4620  11.4620  11.4620  11.4620  11.4620  11.4620
    11.4620  11.4620  11.4620  11.4620  11.4620  11.4620  11.4620  11.4620
    11.4620  11.4620  11.4620  11.4620  11.4620  11.4620  11.4620  11.4620
    12.4105  12.4105

     occupation numbers
     1.0000   1.0000   1.0000   1.0000   1.0000   1.0000   1.0000   1.0000
     1.0000   1.0000   1.0000   1.0000   1.0000   1.0000   1.0000   1.0000
     1.0000   1.0000   1.0000   1.0000   1.0000   1.0000   1.0000   1.0000
     1.0000   1.0000   1.0000   1.0000   1.0000   1.0000   1.0000   1.0000
     1.0000   1.0000   1.0000   1.0000   1.0000   1.0000   1.0000   1.0000
     1.0000   1.0000   1.0000   1.0000   1.0000   1.0000   1.0000   1.0000
     1.0000   1.0000   1.0000   1.0000   1.0000   1.0000   1.0000   1.0000
     1.0000   1.0000   1.0000   1.0000   1.0000   1.0000   1.0000   1.0000
     1.0000   1.0000   1.0000   1.0000   1.0000   1.0000   1.0000   1.0000
     1.0000   1.0000   1.0000   1.0000   1.0000   1.0000   1.0000   1.0000
     1.0000   1.0000   1.0000   1.0000   1.0000   1.0000   1.0000   1.0000
     1.0000   1.0000   1.0000   1.0000   1.0000   1.0000   1.0000   1.0000
     1.0000   1.0000   1.0000   1.0000   1.0000   1.0000   1.0000   1.0000
     1.0000   1.0000   1.0000   1.0000   1.0000   1.0000   1.0000   1.0000
     1.0000   1.0000   1.0000   1.0000   1.0000   1.0000   1.0000   1.0000
     1.0000   1.0000   1.0000   1.0000   1.0000   1.0000   1.0000   1.0000
     1.0000   1.0000   1.0000   1.0000   1.0000   1.0000   1.0000   1.0000
     1.0000   1.0000   1.0000   1.0000   1.0000   1.0000   1.0000   1.0000
     1.0000   1.0000   1.0000   1.0000   1.0000   1.0000   1.0000   1.0000
     1.0000   1.0000   1.0000   1.0000   1.0000   1.0000   1.0000   1.0000
     1.0000   1.0000   1.0000   1.0000   1.0000   1.0000   1.0000   1.0000
     1.0000   1.0000   1.0000   1.0000   1.0000   1.0000   1.0000   1.0000
     1.0000   1.0000   1.0000   1.0000   1.0000   1.0000   1.0000   1.0000
     1.0000   1.0000   1.0000   1.0000   1.0000   1.0000   1.0000   1.0000
     1.0000   1.0000   1.0000   1.0000   1.0000   1.0000   1.0000   1.0000
     1.0000   1.0000   1.0000   1.0000   1.0000   1.0000   1.0000   1.0000
     1.0000   1.0000   1.0000   1.0000   1.0000   1.0000   1.0000   1.0000
     1.0000   1.0000   1.0000   1.0000   1.0000   1.0000   1.0000   1.0000
     1.0000   1.0000   1.0000   1.0000   1.0000   1.0000   1.0000   1.0000
     1.0000   1.0000   1.0000   1.0000   1.0000   1.0000   1.0000   1.0000
     1.0000   1.0000   1.0000   1.0000   1.0000   1.0000   1.0000   1.0000
     1.0000   1.0000   1.0000   1.0000   1.0000   1.0000   1.0000   1.0000
     1.0000   1.0000   1.0000   1.0000   1.0000   1.0000   1.0000   1.0000
     1.0000   1.0000   1.0000   1.0000   1.0000   1.0000   1.0000   1.0000
     1.0000   1.0000   1.0000   1.0000   1.0000   1.0000   1.0000   1.0000
     1.0000   1.0000   1.0000   1.0000   1.0000   1.0000   1.0000   1.0000
     0.0000   0.0000   0.0000   0.0000   0.0000   0.0000   0.0000   0.0000
     0.0000   0.0000   0.0000   0.0000   0.0000   0.0000   0.0000   0.0000
     0.0000   0.0000   0.0000   0.0000   0.0000   0.0000   0.0000   0.0000
     0.0000   0.0000   0.0000   0.0000   0.0000   0.0000   0.0000   0.0000
     0.0000   0.0000   0.0000   0.0000   0.0000   0.0000   0.0000   0.0000
     0.0000   0.0000   0.0000   0.0000   0.0000   0.0000   0.0000   0.0000
     0.0000   0.0000   0.0000   0.0000   0.0000   0.0000   0.0000   0.0000
     0.0000   0.0000

     the Fermi energy is     6.2513 ev

!    total energy              =   -9924.38129650 Ry
     total all-electron energy =   -140500.321884 Ry
     estimated scf accuracy    <          8.5E-09 Ry
     smearing contrib. (-TS)   =      -0.00000000 Ry
     internal energy E=F+TS    =   -9924.38129650 Ry

     The total energy is F=E-TS. E is the sum of the following terms:
     one-electron contribution =   -2754.08237920 Ry
     hartree contribution      =    1961.34294616 Ry
     xc contribution           =   -1674.73021763 Ry
     ewald contribution        =   -2927.19912172 Ry
     one-center paw contrib.   =   -4529.71252410 Ry
      -> PAW hartree energy AE =     123.27692629 Ry
      -> PAW hartree energy PS =    -122.63506234 Ry
      -> PAW xc energy AE      =    -143.20938860 Ry
      -> PAW xc energy PS      =      47.14799122 Ry
      -> total E_H with PAW    =    1961.98481010 Ry
      -> total E_XC with PAW   =   -1770.79161501 Ry

     total magnetization       =     0.00 Bohr mag/cell
     absolute magnetization    =     0.00 Bohr mag/cell

     convergence has been achieved in  11 iterations

     Writing all to output data dir ./out/ZnS.save/

     General routines

     Parallel routines

     PAW routines

   This run was terminated on:   2:14:20  27Jun2024

   JOB DONE.