     Program PWSCF v.7.2 starts on  1Jul2024 at 11:13:38

     Waiting for input...
     Reading input from standard input

     Current dimensions of program PWSCF are:
     Max number of different atomic species (ntypx) = 10
     Max number of k-points (npk) =  40000
     Max angular momentum in pseudopotentials (lmaxx) =  4
     file S.pbe-n-kjpaw_psl.1.0.0.UPF: wavefunction(s)  3S 3P renormalized
     file Zn.pbe-dnl-kjpaw_psl.1.0.0.UPF: wavefunction(s)  4S 3D renormalized
     Found identity + (  0.0000  0.2500  0.2500) symmetry
     This is a supercell, fractional translations are disabled

     K-points division:     npool     =      10
     R & G space division:  proc/nbgrp/npool/nimage =     112
     Subspace diagonalization in iterative solution of the eigenvalue problem:
     one sub-group per band group will be used

     Using Slab Decomposition

     bravais-lattice index     =            1
     lattice parameter (alat)  =      20.5686  a.u.
     unit-cell volume          =    8701.8437 (a.u.)^3
     number of atoms/cell      =           64
     number of atomic types    =            2
     number of electrons       =       576.00
     number of Kohn-Sham states=          345
     kinetic-energy cutoff     =     105.0000  Ry
     charge density cutoff     =     420.0000  Ry
     scf convergence threshold =      1.0E-06
     mixing beta               =       0.7000
     number of iterations used =            8  plain     mixing
     Exchange-correlation= SLA  PW   PBX  PBC
                           (   1   4   3   4   0   0   0)
     Hubbard projectors: ortho-atomic
     Hubbard parameters of DFT+U (Dudarev formulation) in eV:
     U(Zn-3d) =  4.0000

     Internal variables: lda_plus_u = T, lda_plus_u_kind = 0

     celldm(1)=  20.568554  celldm(2)=   0.000000  celldm(3)=   0.000000
     celldm(4)=   0.000000  celldm(5)=   0.000000  celldm(6)=   0.000000

     crystal axes: (cart. coord. in units of alat)
               a(1) = (   1.000000   0.000000   0.000000 )
               a(2) = (   0.000000   1.000000   0.000000 )
               a(3) = (   0.000000   0.000000   1.000000 )

     reciprocal axes: (cart. coord. in units 2 pi/alat)
               b(1) = (  1.000000  0.000000  0.000000 )
               b(2) = (  0.000000  1.000000  0.000000 )
               b(3) = (  0.000000  0.000000  1.000000 )

     PseudoPot. # 1 for S  read from file:
     /arf/home/amuhaymin/pseudo/S.pbe-n-kjpaw_psl.1.0.0.UPF
     MD5 check sum: fb45dfebcf3e72a4e1bd4a866ec2e262
     Pseudo is Projector augmented-wave + core cor, Zval =  6.0
     Generated using &quot;atomic&quot; code by A. Dal Corso  v.6.3
     Shape of augmentation charge: PSQ
     Using radial grid of 1151 points,  6 beta functions with:
                l(1) =   0
                l(2) =   0
                l(3) =   1
                l(4) =   1
                l(5) =   2
                l(6) =   2
     Q(r) pseudized with 0 coefficients

     PseudoPot. # 2 for Zn read from file:
     /arf/home/amuhaymin/pseudo/Zn.pbe-dnl-kjpaw_psl.1.0.0.UPF
     MD5 check sum: c608214d9520ac179f507641260889e3
     Pseudo is Projector augmented-wave + core cor, Zval = 12.0
     Generated using &quot;atomic&quot; code by A. Dal Corso  v.6.2.2
     Shape of augmentation charge: PSQ
     Using radial grid of 1201 points,  6 beta functions with:
                l(1) =   0
                l(2) =   0
                l(3) =   1
                l(4) =   1
                l(5) =   2
                l(6) =   2
     Q(r) pseudized with 0 coefficients

     atomic species   valence    mass     pseudopotential
        S              6.00    32.06500     S ( 1.00)
        Zn            12.00    65.38000     Zn( 1.00)

     24 Sym. Ops. (no inversion) found

                                    s                        frac. trans.

      isym =  1     identity

 cryst.   s( 1) = (     1          0          0      )
                  (     0          1          0      )
                  (     0          0          1      )

 cart.    s( 1) = (  1.0000000  0.0000000  0.0000000 )
                  (  0.0000000  1.0000000  0.0000000 )
                  (  0.0000000  0.0000000  1.0000000 )

      isym =  2     180 deg rotation - cart. axis [0,0,1]

[...]

 cryst.   s( 9) = (     0          1          0      )
                  (     0          0          1      )
                  (     1          0          0      )

 cart.    s( 9) = (  0.0000000  0.0000000  1.0000000 )
                  (  1.0000000  0.0000000  0.0000000 )
                  (  0.0000000  1.0000000  0.0000000 )

[...]

 cryst.   s(10) = (     0         -1          0      )
                  (     0          0         -1      )
                  (     1          0          0      )

 cart.    s(10) = (  0.0000000  0.0000000  1.0000000 )
                  ( -1.0000000  0.0000000  0.0000000 )
                  (  0.0000000 -1.0000000  0.0000000 )

[...]

      isym = 12     120 deg rotation - cart. axis [-1,-1,1]

[...]

      isym = 13     inv. 180 deg rotation - cart. axis [1,1,0]

[...]

      isym = 24     inv.  90 deg rotation - cart. axis [1,0,0]

 cryst.   s(24) = (    -1          0          0      )
                  (     0          0         -1      )
                  (     0          1          0      )

 cart.    s(24) = ( -1.0000000  0.0000000  0.0000000 )
                  (  0.0000000  0.0000000  1.0000000 )
                  (  0.0000000 -1.0000000  0.0000000 )

     point group T_d (-43m)
     there are  5 classes
     the character table:

       E     8C3   3C2   6S4   6s_d
A_1    1.00  1.00  1.00  1.00  1.00
A_2    1.00  1.00  1.00 -1.00 -1.00
E      2.00 -1.00  2.00  0.00  0.00
T_1    3.00  0.00 -1.00  1.00 -1.00
T_2    3.00  0.00 -1.00 -1.00  1.00

     the symmetry operations in each class and the name of the first element:

     E        1
          identity
     8C3      5    7    8    6   12    9   10   11
          120 deg rotation - cart. axis [-1,-1,-1]
     3C2      2    3    4
          180 deg rotation - cart. axis [0,0,1]
     6S4     15   16   20   19   23   24
          inv.  90 deg rotation - cart. axis [0,0,-1]
     6s_d    13   14   17   18   21   22
          inv. 180 deg rotation - cart. axis [1,1,0]

   Cartesian axes

     site n.     atom                  positions (alat units)
         1           Zn  tau(   1) = (   0.0000000   0.0000000   0.0000000  )
         2           Zn  tau(   2) = (   0.0000000   0.2500000   0.2500000  )
         3           Zn  tau(   3) = (   0.2500000   0.0000000   0.2500000  )
         4           Zn  tau(   4) = (   0.2500000   0.2500000   0.0000000  )
         5           S   tau(   5) = (   0.1250000   0.3750000   0.3750000  )
         6           S   tau(   6) = (   0.1250000   0.1250000   0.1250000  )
         7           S   tau(   7) = (   0.3750000   0.3750000   0.1250000  )
         8           S   tau(   8) = (   0.3750000   0.1250000   0.3750000  )
         9           Zn  tau(   9) = (   0.0000000   0.0000000   0.5000000  )
        10           Zn  tau(  10) = (   0.0000000   0.2500000   0.7500000  )
        11           Zn  tau(  11) = (   0.2500000   0.0000000   0.7500000  )
        12           Zn  tau(  12) = (   0.2500000   0.2500000   0.5000000  )
        13           S   tau(  13) = (   0.1250000   0.3750000   0.8750000  )
        14           S   tau(  14) = (   0.1250000   0.1250000   0.6250000  )
        15           S   tau(  15) = (   0.3750000   0.3750000   0.6250000  )
        16           S   tau(  16) = (   0.3750000   0.1250000   0.8750000  )
        17           Zn  tau(  17) = (   0.0000000   0.5000000   0.0000000  )
        18           Zn  tau(  18) = (   0.0000000   0.7500000   0.2500000  )
        19           Zn  tau(  19) = (   0.2500000   0.5000000   0.2500000  )
        20           Zn  tau(  20) = (   0.2500000   0.7500000   0.0000000  )
        21           S   tau(  21) = (   0.1250000   0.8750000   0.3750000  )
        22           S   tau(  22) = (   0.1250000   0.6250000   0.1250000  )
        23           S   tau(  23) = (   0.3750000   0.8750000   0.1250000  )
        24           S   tau(  24) = (   0.3750000   0.6250000   0.3750000  )
        25           Zn  tau(  25) = (   0.0000000   0.5000000   0.5000000  )
        26           Zn  tau(  26) = (   0.0000000   0.7500000   0.7500000  )
        27           Zn  tau(  27) = (   0.2500000   0.5000000   0.7500000  )
        28           Zn  tau(  28) = (   0.2500000   0.7500000   0.5000000  )
        29           S   tau(  29) = (   0.1250000   0.8750000   0.8750000  )
        30           S   tau(  30) = (   0.1250000   0.6250000   0.6250000  )
        31           S   tau(  31) = (   0.3750000   0.8750000   0.6250000  )
        32           S   tau(  32) = (   0.3750000   0.6250000   0.8750000  )
        33           Zn  tau(  33) = (   0.5000000   0.0000000   0.0000000  )
        34           Zn  tau(  34) = (   0.5000000   0.2500000   0.2500000  )
        35           Zn  tau(  35) = (   0.7500000   0.0000000   0.2500000  )
        36           Zn  tau(  36) = (   0.7500000   0.2500000   0.0000000  )
        37           S   tau(  37) = (   0.6250000   0.3750000   0.3750000  )
        38           S   tau(  38) = (   0.6250000   0.1250000   0.1250000  )
        39           S   tau(  39) = (   0.8750000   0.3750000   0.1250000  )
        40           S   tau(  40) = (   0.8750000   0.1250000   0.3750000  )
        41           Zn  tau(  41) = (   0.5000000   0.0000000   0.5000000  )
        42           Zn  tau(  42) = (   0.5000000   0.2500000   0.7500000  )
        43           Zn  tau(  43) = (   0.7500000   0.0000000   0.7500000  )
        44           Zn  tau(  44) = (   0.7500000   0.2500000   0.5000000  )
        45           S   tau(  45) = (   0.6250000   0.3750000   0.8750000  )
        46           S   tau(  46) = (   0.6250000   0.1250000   0.6250000  )
        47           S   tau(  47) = (   0.8750000   0.3750000   0.6250000  )
        48           S   tau(  48) = (   0.8750000   0.1250000   0.8750000  )
        49           Zn  tau(  49) = (   0.5000000   0.5000000   0.0000000  )
        50           Zn  tau(  50) = (   0.5000000   0.7500000   0.2500000  )
        51           Zn  tau(  51) = (   0.7500000   0.5000000   0.2500000  )
        52           Zn  tau(  52) = (   0.7500000   0.7500000   0.0000000  )
        53           S   tau(  53) = (   0.6250000   0.8750000   0.3750000  )
        54           S   tau(  54) = (   0.6250000   0.6250000   0.1250000  )
        55           S   tau(  55) = (   0.8750000   0.8750000   0.1250000  )
        56           S   tau(  56) = (   0.8750000   0.6250000   0.3750000  )
        57           Zn  tau(  57) = (   0.5000000   0.5000000   0.5000000  )
        58           Zn  tau(  58) = (   0.5000000   0.7500000   0.7500000  )
        59           Zn  tau(  59) = (   0.7500000   0.5000000   0.7500000  )
        60           Zn  tau(  60) = (   0.7500000   0.7500000   0.5000000  )
        61           S   tau(  61) = (   0.6250000   0.8750000   0.8750000  )
        62           S   tau(  62) = (   0.6250000   0.6250000   0.6250000  )
[...]
      -0.000 -0.000  0.000  0.997 -0.077
      -0.702 -0.686 -0.190 -0.000 -0.000
     occupation matrix ns (before diag.):
       0.998 -0.000 -0.000  0.000  0.000
      -0.000  0.995 -0.000  0.000  0.000
      -0.000 -0.000  0.995  0.000  0.000
       0.000  0.000  0.000  0.998 -0.000
       0.000  0.000  0.000 -0.000  0.995
     ------------------------ ATOM   58 ------------------------
     Tr[ns( 58)] =   9.96241
     eigenvalues:
       0.995  0.995  0.995  0.998  0.998
     eigenvectors (columns):
       0.000 -0.000  0.000  0.866  0.500
       0.707  0.153 -0.690 -0.000  0.000
      -0.000  0.976  0.216 -0.000  0.000
       0.000  0.000 -0.000  0.500 -0.866
       0.707 -0.153  0.690 -0.000 -0.000
     occupation matrix ns (before diag.):
       0.998 -0.000  0.000 -0.000 -0.000
      -0.000  0.995 -0.000 -0.000 -0.000
       0.000 -0.000  0.995 -0.000  0.000
      -0.000 -0.000 -0.000  0.998  0.000
      -0.000 -0.000  0.000  0.000  0.995
     ------------------------ ATOM   59 ------------------------
     Tr[ns( 59)] =   9.96241
     eigenvalues:
       0.995  0.995  0.995  0.998  0.998
     eigenvectors (columns):
       0.000  0.000 -0.000  0.866  0.500
      -0.000 -0.976 -0.216 -0.000  0.000
       0.707 -0.153  0.690 -0.000  0.000
      -0.000  0.000 -0.000 -0.500  0.866
       0.707  0.153 -0.690 -0.000 -0.000
     occupation matrix ns (before diag.):
       0.998  0.000 -0.000  0.000 -0.000
       0.000  0.995 -0.000  0.000  0.000
      -0.000 -0.000  0.995  0.000 -0.000
       0.000  0.000  0.000  0.998 -0.000
      -0.000  0.000 -0.000 -0.000  0.995
     ------------------------ ATOM   60 ------------------------
     Tr[ns( 60)] =   9.96241
     eigenvalues:
       0.995  0.995  0.995  0.998  0.998
     eigenvectors (columns):
       0.000 -0.000 -0.000  0.000  1.000
      -0.707 -0.153 -0.690  0.000 -0.000
       0.707 -0.153 -0.690 -0.000 -0.000
      -0.000  0.000  0.000 -1.000  0.000
      -0.000  0.976 -0.216  0.000  0.000
     occupation matrix ns (before diag.):
       0.998 -0.000 -0.000  0.000  0.000
      -0.000  0.995  0.000 -0.000  0.000
      -0.000  0.000  0.995  0.000  0.000
       0.000 -0.000  0.000  0.998 -0.000
       0.000  0.000  0.000 -0.000  0.995

     Number of occupied Hubbard levels =  318.7970

     HUBBARD ENERGY =    0.1761  (Ry)

     End of self-consistent calculation

          k = 0.0000 0.0000 0.0000 (158355 PWs)   bands (ev):

    -7.4542  -6.9538  -6.9537  -6.9537  -6.9537  -6.9537  -6.9537  -6.6674
    -6.6674  -6.6674  -6.6674  -6.6673  -6.6673  -6.6673  -6.6673  -6.6673
    -6.6673  -6.6673  -6.6673  -6.6521  -6.6521  -6.6521  -6.6521  -6.3940
    -6.3940  -6.3940  -6.3853  -6.3853  -6.3853  -6.3852  -6.3852  -6.3852
    -2.3402  -2.3402  -2.3402  -2.2627  -2.2627  -2.2627  -2.2627  -2.2627
    -2.2627  -2.2569  -2.2569  -2.2569  -2.2569  -2.2569  -2.2568  -2.2568
    -2.2568  -2.2426  -2.2425  -2.2425  -2.2411  -2.2411  -2.2411  -2.2411
    -2.2411  -2.2411  -2.2411  -2.2411  -2.2411  -2.2410  -2.2410  -2.2410
    -2.2236  -2.2236  -2.2236  -2.2236  -2.2236  -2.2236  -2.2236  -2.2236
    -2.2236  -2.2235  -2.2235  -2.2235  -2.2171  -2.2171  -2.2171  -2.2171
    -2.2171  -2.2171  -2.2170  -2.2170  -2.2170  -2.2170  -2.2170  -2.2170
    -2.1925  -2.1925  -2.1925  -2.1925  -2.1925  -2.1924  -2.1592  -2.1592
    -2.1592  -2.1592  -2.1592  -2.1592  -2.0845  -2.0845  -2.0845  -2.0845
    -2.0845  -2.0845  -2.0330  -2.0330  -2.0330  -2.0330  -2.0330  -2.0330
    -2.0322  -2.0322  -2.0322  -2.0321  -2.0321  -2.0321  -2.0321  -2.0321
    -2.0321  -2.0321  -2.0321  -2.0320  -2.0300  -2.0300  -2.0300  -2.0300
    -2.0300  -2.0299  -2.0177  -2.0177  -2.0177  -2.0177  -2.0177  -2.0177
    -2.0177  -2.0177  -2.0177  -2.0176  -2.0176  -2.0175  -2.0072  -2.0072
    -2.0009  -2.0009  -2.0009  -2.0009  -2.0009  -2.0008  -1.9760  -1.9760
    -1.9760  -1.9760  -1.9760  -1.9760  -1.9759  -1.9759  -1.9718  -1.9718
    -1.9718  -1.9717  -1.9717  -1.9717  -1.9363  -1.9363  -1.9363  -1.8288
    -1.8288  -1.8288  -1.8288  -1.8288  -1.8288  -1.8287  -1.8287  -1.8287
    -1.8287  -1.8287  -1.8287  -1.7022  -1.7022  -1.7022  -1.7022  -1.6427
    -1.6427  -1.6427  -1.4907  -1.4907  -1.4907  -1.4907  -1.4907  -1.4907
     0.3893   0.3893   0.3893   0.3893   0.8371   0.8371   0.8371   1.0084
     1.0084   1.0084   1.0084   1.0084   1.0084   1.4775   1.4775   1.4775
     1.4775   1.4775   1.4775   1.4775   1.4775   1.4775   1.4775   1.4776
     1.4776   2.7599   2.7599   2.7599   2.7599   2.7599   2.7599   2.7964
     2.7964   2.7964   2.7964   2.7964   2.7964   2.8724   2.8724   2.8724
     2.8724   2.8724   2.8724   3.0115   3.0115   3.0115   3.0115   3.0115
     3.0115   3.0115   3.0115   3.0115   3.0116   3.0116   3.0116   3.3434
     3.3434   3.3434   3.3434   3.3434   3.3434   4.2503   4.2503   4.2503
     4.2503   4.2503   4.2503   4.2503   4.2503   4.2503   4.2504   4.2504
     4.2504   4.5696   4.5696   4.5696   4.5696   4.5696   4.5696   4.5696
     4.5696   4.5696   4.5696   4.5696   4.5696   4.6078   4.6078   4.6078
     4.6078   4.6078   4.6078   4.6078   4.6078   5.4153   5.4153   5.4153
     7.5715   8.8101   8.8101   8.8101   8.8101   8.9800   8.9800   8.9800
     9.6095   9.6095   9.6095   9.9817   9.9818   9.9818   9.9818   9.9818
     9.9818  10.1135  10.1135  10.1135  10.1135  10.1135  10.1135  10.3214
    10.3215  10.3215  10.3215  10.3215  10.3215  10.3215  10.3215  10.3215
    10.3215  10.3215  10.3215  11.2262  11.2262  11.2262  11.2262  11.2262
    11.2263  11.4824  11.4824  11.4824  11.4824  11.4825  11.4825  11.9372
    12.1816  12.1828  12.1843  12.1844  12.1844  12.1844  12.1844  12.1844
    12.1844

     occupation numbers
     1.0000   1.0000   1.0000   1.0000   1.0000   1.0000   1.0000   1.0000
     1.0000   1.0000   1.0000   1.0000   1.0000   1.0000   1.0000   1.0000
     1.0000   1.0000   1.0000   1.0000   1.0000   1.0000   1.0000   1.0000
     1.0000   1.0000   1.0000   1.0000   1.0000   1.0000   1.0000   1.0000
     1.0000   1.0000   1.0000   1.0000   1.0000   1.0000   1.0000   1.0000
     1.0000   1.0000   1.0000   1.0000   1.0000   1.0000   1.0000   1.0000
     1.0000   1.0000   1.0000   1.0000   1.0000   1.0000   1.0000   1.0000
     1.0000   1.0000   1.0000   1.0000   1.0000   1.0000   1.0000   1.0000
     1.0000   1.0000   1.0000   1.0000   1.0000   1.0000   1.0000   1.0000
     1.0000   1.0000   1.0000   1.0000   1.0000   1.0000   1.0000   1.0000
     1.0000   1.0000   1.0000   1.0000   1.0000   1.0000   1.0000   1.0000
     1.0000   1.0000   1.0000   1.0000   1.0000   1.0000   1.0000   1.0000
     1.0000   1.0000   1.0000   1.0000   1.0000   1.0000   1.0000   1.0000
     1.0000   1.0000   1.0000   1.0000   1.0000   1.0000   1.0000   1.0000
     1.0000   1.0000   1.0000   1.0000   1.0000   1.0000   1.0000   1.0000
     1.0000   1.0000   1.0000   1.0000   1.0000   1.0000   1.0000   1.0000
     1.0000   1.0000   1.0000   1.0000   1.0000   1.0000   1.0000   1.0000
     1.0000   1.0000   1.0000   1.0000   1.0000   1.0000   1.0000   1.0000
     1.0000   1.0000   1.0000   1.0000   1.0000   1.0000   1.0000   1.0000
     1.0000   1.0000   1.0000   1.0000   1.0000   1.0000   1.0000   1.0000
     1.0000   1.0000   1.0000   1.0000   1.0000   1.0000   1.0000   1.0000
     1.0000   1.0000   1.0000   1.0000   1.0000   1.0000   1.0000   1.0000
     1.0000   1.0000   1.0000   1.0000   1.0000   1.0000   1.0000   1.0000
     1.0000   1.0000   1.0000   1.0000   1.0000   1.0000   1.0000   1.0000
     1.0000   1.0000   1.0000   1.0000   1.0000   1.0000   1.0000   1.0000
     1.0000   1.0000   1.0000   1.0000   1.0000   1.0000   1.0000   1.0000
     1.0000   1.0000   1.0000   1.0000   1.0000   1.0000   1.0000   1.0000
     1.0000   1.0000   1.0000   1.0000   1.0000   1.0000   1.0000   1.0000
     1.0000   1.0000   1.0000   1.0000   1.0000   1.0000   1.0000   1.0000
     1.0000   1.0000   1.0000   1.0000   1.0000   1.0000   1.0000   1.0000
     1.0000   1.0000   1.0000   1.0000   1.0000   1.0000   1.0000   1.0000
     1.0000   1.0000   1.0000   1.0000   1.0000   1.0000   1.0000   1.0000
     1.0000   1.0000   1.0000   1.0000   1.0000   1.0000   1.0000   1.0000
     1.0000   1.0000   1.0000   1.0000   1.0000   1.0000   1.0000   1.0000
     1.0000   1.0000   1.0000   1.0000   1.0000   1.0000   1.0000   1.0000
     1.0000   1.0000   1.0000   1.0000   1.0000   1.0000   1.0000   1.0000
     0.0000   0.0000   0.0000   0.0000   0.0000   0.0000   0.0000   0.0000
     0.0000   0.0000   0.0000   0.0000   0.0000   0.0000   0.0000   0.0000
     0.0000   0.0000   0.0000   0.0000   0.0000   0.0000   0.0000   0.0000
     0.0000   0.0000   0.0000   0.0000   0.0000   0.0000   0.0000   0.0000
     0.0000   0.0000   0.0000   0.0000   0.0000   0.0000   0.0000   0.0000
     0.0000   0.0000   0.0000   0.0000   0.0000   0.0000   0.0000   0.0000
     0.0000   0.0000   0.0000   0.0000   0.0000   0.0000   0.0000   0.0000
     0.0000

[...]

          k = 0.2500-0.5000-0.5000 (158052 PWs)   bands (ev):

[...]

          k =-0.5000-0.5000-0.5000 (158408 PWs)   bands (ev):

    -7.0782  -7.0781  -7.0781  -7.0781  -7.0781  -7.0781  -7.0781  -7.0781
    -6.5274  -6.5274  -6.5274  -6.5274  -6.5274  -6.5274  -6.5274  -6.5274
    -6.5273  -6.5273  -6.5273  -6.5273  -6.5273  -6.5273  -6.5273  -6.5273
    -6.5273  -6.5273  -6.5273  -6.5273  -6.5273  -6.5273  -6.5273  -6.5273
    -2.2884  -2.2884  -2.2884  -2.2884  -2.2884  -2.2884  -2.2884  -2.2884
    -2.2883  -2.2883  -2.2883  -2.2882  -2.2882  -2.2882  -2.2882  -2.2882
    -2.2303  -2.2303  -2.2303  -2.2303  -2.2303  -2.2303  -2.2303  -2.2303
    -2.2303  -2.2303  -2.2302  -2.2302  -2.2302  -2.2302  -2.2301  -2.2301
    -2.2301  -2.2301  -2.2301  -2.2301  -2.2300  -2.2300  -2.2300  -2.2300
    -2.2003  -2.2003  -2.2003  -2.2003  -2.2002  -2.2002  -2.2002  -2.2001
    -2.1680  -2.1680  -2.1680  -2.1680  -2.1680  -2.1680  -2.1680  -2.1679
    -2.1679  -2.1679  -2.1679  -2.1679  -2.1678  -2.1678  -2.1678  -2.1678
    -2.1677  -2.1677  -2.1677  -2.1677  -2.1677  -2.1677  -2.1677  -2.1677
    -2.0786  -2.0786  -2.0786  -2.0786  -2.0785  -2.0785  -2.0785  -2.0785
    -2.0785  -2.0785  -2.0785  -2.0785  -2.0785  -2.0785  -2.0784  -2.0784
    -2.0784  -2.0784  -2.0784  -2.0784  -2.0784  -2.0783  -2.0783  -2.0783
    -2.0038  -2.0038  -2.0038  -2.0038  -2.0038  -2.0038  -2.0038  -2.0038
    -2.0038  -2.0038  -2.0036  -2.0036  -2.0036  -2.0036  -2.0036  -2.0036
    -1.9642  -1.9642  -1.9642  -1.9642  -1.9642  -1.9642  -1.9641  -1.9641
    -1.9641  -1.9641  -1.9641  -1.9641  -1.9641  -1.9641  -1.9641  -1.9640
    -1.9640  -1.9640  -1.9639  -1.9639  -1.9639  -1.9638  -1.9638  -1.9638
    -1.6889  -1.6889  -1.6889  -1.6889  -1.6889  -1.6889  -1.6889  -1.6889
    -1.6889  -1.6888  -1.6888  -1.6888  -1.6888  -1.6888  -1.6888  -1.6887
    -1.6887  -1.6887  -1.6887  -1.6886  -1.6886  -1.6886  -1.6886  -1.6886
     1.0189   1.0190   1.0190   1.0190   1.0190   1.0190   1.0190   1.0190
     1.0190   1.0190   1.0190   1.0190   1.0190   1.0191   1.0191   1.0191
     1.0191   1.0191   1.0191   1.0191   1.0191   1.0191   1.0191   1.0191
     2.5829   2.5829   2.5829   2.5829   2.5829   2.5829   2.5829   2.5829
     3.1137   3.1137   3.1137   3.1137   3.1137   3.1137   3.1137   3.1137
     3.1137   3.1137   3.1137   3.1137   3.1137   3.1137   3.1137   3.1137
     3.1137   3.1137   3.1137   3.1137   3.1137   3.1137   3.1137   3.1137
     3.9212   3.9212   3.9212   3.9213   3.9213   3.9213   3.9213   3.9213
     3.9213   3.9213   3.9213   3.9213   3.9213   3.9213   3.9213   3.9213
     3.9213   3.9213   3.9213   3.9213   3.9213   3.9213   3.9213   3.9213
     4.9768   4.9768   4.9768   4.9768   4.9768   4.9768   4.9768   4.9768
     4.9768   4.9768   4.9768   4.9768   4.9768   4.9768   4.9768   4.9768
     8.9596   8.9596   8.9596   8.9596   8.9596   8.9596   8.9596   8.9596
     9.8611   9.8612   9.8612   9.8612   9.8612   9.8612   9.8612   9.8612
     9.8612   9.8612   9.8612   9.8612   9.8612   9.8612   9.8612   9.8612
     9.8612   9.8612   9.8612   9.8612   9.8612   9.8612   9.8612   9.8612
    11.4703  11.4704  11.4704  11.4704  11.4704  11.4704  11.4704  11.4704
    11.4704  11.4704  11.4704  11.4704  11.4704  11.4704  11.4704  11.4704
    11.4704  11.4704  11.4704  11.4704  11.4704  11.4704  11.4704  11.4705
    12.4174

     occupation numbers
     1.0000   1.0000   1.0000   1.0000   1.0000   1.0000   1.0000   1.0000
     1.0000   1.0000   1.0000   1.0000   1.0000   1.0000   1.0000   1.0000
     1.0000   1.0000   1.0000   1.0000   1.0000   1.0000   1.0000   1.0000
     1.0000   1.0000   1.0000   1.0000   1.0000   1.0000   1.0000   1.0000
     1.0000   1.0000   1.0000   1.0000   1.0000   1.0000   1.0000   1.0000
     1.0000   1.0000   1.0000   1.0000   1.0000   1.0000   1.0000   1.0000
     1.0000   1.0000   1.0000   1.0000   1.0000   1.0000   1.0000   1.0000
     1.0000   1.0000   1.0000   1.0000   1.0000   1.0000   1.0000   1.0000
     1.0000   1.0000   1.0000   1.0000   1.0000   1.0000   1.0000   1.0000
     1.0000   1.0000   1.0000   1.0000   1.0000   1.0000   1.0000   1.0000
     1.0000   1.0000   1.0000   1.0000   1.0000   1.0000   1.0000   1.0000
     1.0000   1.0000   1.0000   1.0000   1.0000   1.0000   1.0000   1.0000
     1.0000   1.0000   1.0000   1.0000   1.0000   1.0000   1.0000   1.0000
     1.0000   1.0000   1.0000   1.0000   1.0000   1.0000   1.0000   1.0000
     1.0000   1.0000   1.0000   1.0000   1.0000   1.0000   1.0000   1.0000
     1.0000   1.0000   1.0000   1.0000   1.0000   1.0000   1.0000   1.0000
     1.0000   1.0000   1.0000   1.0000   1.0000   1.0000   1.0000   1.0000
     1.0000   1.0000   1.0000   1.0000   1.0000   1.0000   1.0000   1.0000
     1.0000   1.0000   1.0000   1.0000   1.0000   1.0000   1.0000   1.0000
     1.0000   1.0000   1.0000   1.0000   1.0000   1.0000   1.0000   1.0000
     1.0000   1.0000   1.0000   1.0000   1.0000   1.0000   1.0000   1.0000
     1.0000   1.0000   1.0000   1.0000   1.0000   1.0000   1.0000   1.0000
     1.0000   1.0000   1.0000   1.0000   1.0000   1.0000   1.0000   1.0000
     1.0000   1.0000   1.0000   1.0000   1.0000   1.0000   1.0000   1.0000
     1.0000   1.0000   1.0000   1.0000   1.0000   1.0000   1.0000   1.0000
     1.0000   1.0000   1.0000   1.0000   1.0000   1.0000   1.0000   1.0000
     1.0000   1.0000   1.0000   1.0000   1.0000   1.0000   1.0000   1.0000
     1.0000   1.0000   1.0000   1.0000   1.0000   1.0000   1.0000   1.0000
     1.0000   1.0000   1.0000   1.0000   1.0000   1.0000   1.0000   1.0000
     1.0000   1.0000   1.0000   1.0000   1.0000   1.0000   1.0000   1.0000
     1.0000   1.0000   1.0000   1.0000   1.0000   1.0000   1.0000   1.0000
     1.0000   1.0000   1.0000   1.0000   1.0000   1.0000   1.0000   1.0000
     1.0000   1.0000   1.0000   1.0000   1.0000   1.0000   1.0000   1.0000
     1.0000   1.0000   1.0000   1.0000   1.0000   1.0000   1.0000   1.0000
     1.0000   1.0000   1.0000   1.0000   1.0000   1.0000   1.0000   1.0000
     1.0000   1.0000   1.0000   1.0000   1.0000   1.0000   1.0000   1.0000
     0.0000   0.0000   0.0000   0.0000   0.0000   0.0000   0.0000   0.0000
     0.0000   0.0000   0.0000   0.0000   0.0000   0.0000   0.0000   0.0000
     0.0000   0.0000   0.0000   0.0000   0.0000   0.0000   0.0000   0.0000
     0.0000   0.0000   0.0000   0.0000   0.0000   0.0000   0.0000   0.0000
     0.0000   0.0000   0.0000   0.0000   0.0000   0.0000   0.0000   0.0000
     0.0000   0.0000   0.0000   0.0000   0.0000   0.0000   0.0000   0.0000
     0.0000   0.0000   0.0000   0.0000   0.0000   0.0000   0.0000   0.0000
     0.0000

     highest occupied, lowest unoccupied level (ev):     5.4153    7.5715

!    total energy              =   -9924.18302877 Ry
     total all-electron energy =   -140500.123617 Ry
     estimated scf accuracy    <       0.00000032 Ry

     The total energy is the sum of the following terms:
     one-electron contribution =   -2757.54683069 Ry
     hartree contribution      =    1965.59205946 Ry
     xc contribution           =   -1675.53765804 Ry
     ewald contribution        =   -2927.19912172 Ry
     Hubbard energy            =       0.17611466 Ry
     one-center paw contrib.   =   -4529.66759244 Ry
      -> PAW hartree energy AE =     123.58575060 Ry
      -> PAW hartree energy PS =    -122.94061375 Ry
      -> PAW xc energy AE      =    -143.24534746 Ry
      -> PAW xc energy PS      =      47.18278222 Ry
      -> total E_H with PAW    =    1966.23719631 Ry
      -> total E_XC with PAW   =   -1771.60022328 Ry

     convergence has been achieved in   9 iterations

     Writing all to output data dir ./out/ZnS_hub.save/

     General routines

     Parallel routines

     Hubbard U routines

     PAW routines

   This run was terminated on:  11:15: 3   1Jul2024

   JOB DONE.