     Program PWSCF v.7.2 starts on 29Jun2024 at  3:40: 1

     Reading input from 1.Cu_vac_in_ZnS.relax.qp1.in.part2

     Current dimensions of program PWSCF are:
     Max number of different atomic species (ntypx) = 10
     Max number of k-points (npk) =  40000
     Max angular momentum in pseudopotentials (lmaxx) =  4

     File ./out/Cu_vac_qp1.update deleted, as requested

     File ./out/Cu_vac_qp1.bfgs deleted, as requested
     file S.pbe-n-kjpaw_psl.1.0.0.UPF: wavefunction(s)  3S 3P renormalized
     file Zn.pbe-dnl-kjpaw_psl.1.0.0.UPF: wavefunction(s)  4S 3D renormalized
     file Cu.pbe-spn-kjpaw_psl.1.0.0.UPF: wavefunction(s)  4S 3P 3D renormalized

     K-points division:     npool     =       5
     R & G space division:  proc/nbgrp/npool/nimage =     112
     Subspace diagonalization in iterative solution of the eigenvalue problem:
     one sub-group per band group will be used

     Using Slab Decomposition

     bravais-lattice index     =            1
     lattice parameter (alat)  =      20.5686  a.u.
     unit-cell volume          =    8701.8437 (a.u.)^3
     number of atoms/cell      =           63
     number of atomic types    =            3
     number of electrons       =       576.00
     number of Kohn-Sham states=          346
     kinetic-energy cutoff     =     150.0000  Ry
     charge density cutoff     =     600.0000  Ry
     scf convergence threshold =      1.0E-08
     mixing beta               =       0.7000
     number of iterations used =            8  plain     mixing
     energy convergence thresh.=      1.0E-05
     force convergence thresh. =      1.0E-04
     Exchange-correlation= SLA  PW   PBX  PBC
                           (   1   4   3   4   0   0   0)
     nstep                     =           50

     celldm(1)=  20.568554  celldm(2)=   0.000000  celldm(3)=   0.000000
     celldm(4)=   0.000000  celldm(5)=   0.000000  celldm(6)=   0.000000

     crystal axes: (cart. coord. in units of alat)
               a(1) = (   1.000000   0.000000   0.000000 )
               a(2) = (   0.000000   1.000000   0.000000 )
               a(3) = (   0.000000   0.000000   1.000000 )

     reciprocal axes: (cart. coord. in units 2 pi/alat)
               b(1) = (  1.000000  0.000000  0.000000 )
               b(2) = (  0.000000  1.000000  0.000000 )
               b(3) = (  0.000000  0.000000  1.000000 )

     PseudoPot. # 1 for S  read from file:
     /arf/home/amuhaymin/pseudo/S.pbe-n-kjpaw_psl.1.0.0.UPF
     MD5 check sum: fb45dfebcf3e72a4e1bd4a866ec2e262
     Pseudo is Projector augmented-wave + core cor, Zval =  6.0
     Generated using &quot;atomic&quot; code by A. Dal Corso  v.6.3
     Shape of augmentation charge: PSQ
     Using radial grid of 1151 points,  6 beta functions with:
                l(1) =   0
                l(2) =   0
                l(3) =   1
                l(4) =   1
                l(5) =   2
                l(6) =   2
     Q(r) pseudized with 0 coefficients

     PseudoPot. # 2 for Zn read from file:
     /arf/home/amuhaymin/pseudo/Zn.pbe-dnl-kjpaw_psl.1.0.0.UPF
     MD5 check sum: c608214d9520ac179f507641260889e3
     Pseudo is Projector augmented-wave + core cor, Zval = 12.0
     Generated using &quot;atomic&quot; code by A. Dal Corso  v.6.2.2
     Shape of augmentation charge: PSQ
     Using radial grid of 1201 points,  6 beta functions with:
                l(1) =   0
                l(2) =   0
                l(3) =   1
                l(4) =   1
                l(5) =   2
                l(6) =   2
     Q(r) pseudized with 0 coefficients

     PseudoPot. # 3 for Cu read from file:
     /arf/home/amuhaymin/pseudo/Cu.pbe-spn-kjpaw_psl.1.0.0.UPF
     MD5 check sum: e7cbaad2f97193e5fe23251a619a52b0
     Pseudo is Projector augmented-wave + core cor, Zval = 19.0
     Generated using &quot;atomic&quot; code by A. Dal Corso  v.6.3
     Shape of augmentation charge: PSQ
     Using radial grid of 1199 points,  6 beta functions with:
                l(1) =   0
                l(2) =   0
                l(3) =   1
                l(4) =   1
                l(5) =   2
                l(6) =   2
     Q(r) pseudized with 0 coefficients

     atomic species   valence    mass     pseudopotential
        S              6.00    32.06500     S ( 1.00)
        Zn            12.00    65.38000     Zn( 1.00)
        Cu            19.00    63.54600     Cu( 1.00)

     Starting magnetic structure
     atomic species   magnetization
        S            0.000
        Zn           0.000
        Cu           0.105

      6 Sym. Ops. (no inversion) found

                                    s                        frac. trans.

      isym =  1     identity

 cryst.   s( 1) = (     1          0          0      )
                  (     0          1          0      )
                  (     0          0          1      )

 cart.    s( 1) = (  1.0000000  0.0000000  0.0000000 )
                  (  0.0000000  1.0000000  0.0000000 )
                  (  0.0000000  0.0000000  1.0000000 )

      isym =  2     120 deg rotation - cart. axis [-1,-1,-1]

[...]

      isym =  3     120 deg rotation - cart. axis [1,1,1]

[...]

      isym =  4     inv. 180 deg rotation - cart. axis [1,-1,0]

[...]

      isym =  6     inv. 180 deg rotation - cart. axis [0,1,-1]

 cryst.   s( 6) = (     1          0          0      )
                  (     0          0          1      )
                  (     0          1          0      )

 cart.    s( 6) = (  1.0000000  0.0000000  0.0000000 )
                  (  0.0000000  0.0000000  1.0000000 )
                  (  0.0000000  1.0000000  0.0000000 )

     point group C_3v (3m)
     there are  3 classes
     the character table:

       E     2C3   3s_v
A_1    1.00  1.00  1.00
A_2    1.00  1.00 -1.00
E      2.00 -1.00  0.00

     the symmetry operations in each class and the name of the first element:

     E        1
          identity
     2C3      2    3
          120 deg rotation - cart. axis [-1,-1,-1]
     3s_v     4    5    6
          inv. 180 deg rotation - cart. axis [1,-1,0]

   Cartesian axes

     site n.     atom                  positions (alat units)
         1           Zn  tau(   1) = (   0.0003359   0.0003359   0.0003359  )
         2           Zn  tau(   2) = (   0.0007924   0.2499957   0.2499957  )
         3           Zn  tau(   3) = (   0.2499957   0.0007924   0.2499957  )
         4           Zn  tau(   4) = (   0.2499957   0.2499957   0.0007924  )
         5           S   tau(   5) = (   0.1253288   0.3748354   0.3748354  )
         6           S   tau(   6) = (   0.1248580   0.1248580   0.1248580  )
         7           S   tau(   7) = (   0.3748354   0.3748354   0.1253288  )
         8           S   tau(   8) = (   0.3748354   0.1253288   0.3748354  )
         9           Zn  tau(   9) = (   0.0025035   0.0025035   0.4988741  )
        10           Zn  tau(  10) = (   0.0026522   0.2474780   0.7504670  )
        11           Zn  tau(  11) = (   0.2474780   0.0026522   0.7504670  )
        12           Zn  tau(  12) = (   0.2524861   0.2524861   0.5013026  )
        13           S   tau(  13) = (   0.1245827   0.3746701   0.8753520  )
        14           S   tau(  14) = (   0.1255960   0.1255960   0.6240385  )
        15           S   tau(  15) = (   0.3761935   0.3761935   0.6259080  )
        16           S   tau(  16) = (   0.3746701   0.1245827   0.8753520  )
        17           Zn  tau(  17) = (   0.0025035   0.4988741   0.0025035  )
        18           Zn  tau(  18) = (   0.0026522   0.7504670   0.2474780  )
        19           Zn  tau(  19) = (   0.2524861   0.5013026   0.2524861  )
        20           Zn  tau(  20) = (   0.2474780   0.7504670   0.0026522  )
        21           S   tau(  21) = (   0.1245827   0.8753520   0.3746701  )
        22           S   tau(  22) = (   0.1255960   0.6240385   0.1255960  )
        23           S   tau(  23) = (   0.3746701   0.8753520   0.1245827  )
        24           S   tau(  24) = (   0.3761935   0.6259080   0.3761935  )
        25           Zn  tau(  25) = (   0.0039331   0.5003141   0.5003141  )
        26           Zn  tau(  26) = (   0.0033416   0.7487308   0.7487308  )
        27           Zn  tau(  27) = (   0.2492191   0.4964154   0.7470607  )
        28           Zn  tau(  28) = (   0.2492191   0.7470607   0.4964154  )
        29           S   tau(  29) = (   0.1245381   0.8747573   0.8747573  )
        30           S   tau(  30) = (   0.1259908   0.6249128   0.6249128  )
        31           S   tau(  31) = (   0.3726561   0.8768241   0.6222656  )
        32           S   tau(  32) = (   0.3726561   0.6222656   0.8768241  )
        33           Zn  tau(  33) = (   0.4988741   0.0025035   0.0025035  )
        34           Zn  tau(  34) = (   0.5013026   0.2524861   0.2524861  )
        35           Zn  tau(  35) = (   0.7504670   0.0026522   0.2474780  )
        36           Zn  tau(  36) = (   0.7504670   0.2474780   0.0026522  )
        37           S   tau(  37) = (   0.6259080   0.3761935   0.3761935  )
        38           S   tau(  38) = (   0.6240385   0.1255960   0.1255960  )
        39           S   tau(  39) = (   0.8753520   0.3746701   0.1245827  )
        40           S   tau(  40) = (   0.8753520   0.1245827   0.3746701  )
        41           Zn  tau(  41) = (   0.5003141   0.0039331   0.5003141  )
        42           Zn  tau(  42) = (   0.4964154   0.2492191   0.7470607  )
        43           Zn  tau(  43) = (   0.7487308   0.0033416   0.7487308  )
        44           Zn  tau(  44) = (   0.7470607   0.2492191   0.4964154  )
        45           S   tau(  45) = (   0.6222656   0.3726561   0.8768241  )
        46           S   tau(  46) = (   0.6249128   0.1259908   0.6249128  )
        47           S   tau(  47) = (   0.8768241   0.3726561   0.6222656  )
        48           S   tau(  48) = (   0.8747573   0.1245381   0.8747573  )
        49           Zn  tau(  49) = (   0.5003141   0.5003141   0.0039331  )
        50           Zn  tau(  50) = (   0.4964154   0.7470607   0.2492191  )
        51           Zn  tau(  51) = (   0.7470607   0.4964154   0.2492191  )
        52           Zn  tau(  52) = (   0.7487308   0.7487308   0.0033416  )
        53           S   tau(  53) = (   0.6222656   0.8768241   0.3726561  )
        54           S   tau(  54) = (   0.6249128   0.6249128   0.1259908  )
        55           S   tau(  55) = (   0.8747573   0.8747573   0.1245381  )
        56           S   tau(  56) = (   0.8768241   0.6222656   0.3726561  )
        57           Cu  tau(  57) = (   0.4700209   0.4700209   0.4700209  )
        58           Zn  tau(  58) = (   0.4685465   0.7793025   0.7793025  )
        59           Zn  tau(  59) = (   0.7793025   0.4685465   0.7793025  )
        60           Zn  tau(  60) = (   0.7793025   0.7793025   0.4685465  )
        61           S   tau(  61) = (   0.6267302   0.8759595   0.8759595  )
        62           S   tau(  62) = (   0.8759595   0.8759595   0.6267302  )
        63           S   tau(  63) = (   0.8759595   0.6267302   0.8759595  )

   Crystallographic axes

     site n.     atom                  positions (cryst. coord.)
[...]
     atom    9 type  2   force =     0.00000000    0.00000000    0.00000000
     atom   10 type  2   force =     0.00000000    0.00000000    0.00000000
     atom   11 type  2   force =     0.00000000    0.00000000    0.00000000
     atom   12 type  2   force =     0.00000000    0.00000000    0.00000000
     atom   13 type  1   force =     0.00000000    0.00000000    0.00000000
     atom   14 type  1   force =     0.00000000    0.00000000    0.00000000
     atom   15 type  1   force =     0.00000000    0.00000000    0.00000000
     atom   16 type  1   force =     0.00000000    0.00000000    0.00000000
     atom   17 type  2   force =     0.00000000    0.00000000    0.00000000
     atom   18 type  2   force =     0.00000000    0.00000000    0.00000000
     atom   19 type  2   force =     0.00000000    0.00000000    0.00000000
     atom   20 type  2   force =     0.00000000    0.00000000    0.00000000
     atom   21 type  1   force =     0.00000000    0.00000000    0.00000000
     atom   22 type  1   force =     0.00000000    0.00000000    0.00000000
     atom   23 type  1   force =     0.00000000    0.00000000    0.00000000
     atom   24 type  1   force =     0.00000000    0.00000000    0.00000000
     atom   25 type  2   force =     0.00000000    0.00000000    0.00000000
     atom   26 type  2   force =     0.00000000    0.00000000    0.00000000
     atom   27 type  2   force =     0.00000000    0.00000000    0.00000000
     atom   28 type  2   force =     0.00000000    0.00000000    0.00000000
     atom   29 type  1   force =     0.00000000    0.00000000    0.00000000
     atom   30 type  1   force =     0.00000000    0.00000000    0.00000000
     atom   31 type  1   force =     0.00000000    0.00000000    0.00000000
     atom   32 type  1   force =     0.00000000    0.00000000    0.00000000
     atom   33 type  2   force =     0.00000000    0.00000000    0.00000000
     atom   34 type  2   force =     0.00000000    0.00000000    0.00000000
     atom   35 type  2   force =     0.00000000    0.00000000    0.00000000
     atom   36 type  2   force =     0.00000000    0.00000000    0.00000000
     atom   37 type  1   force =     0.00000000    0.00000000    0.00000000
     atom   38 type  1   force =     0.00000000    0.00000000    0.00000000
     atom   39 type  1   force =     0.00000000    0.00000000    0.00000000
     atom   40 type  1   force =     0.00000000    0.00000000    0.00000000
     atom   41 type  2   force =     0.00000000    0.00000000    0.00000000
     atom   42 type  2   force =     0.00000000    0.00000000    0.00000000
     atom   43 type  2   force =     0.00000000    0.00000000    0.00000000
     atom   44 type  2   force =     0.00000000    0.00000000    0.00000000
     atom   45 type  1   force =     0.00000000    0.00000000    0.00000000
     atom   46 type  1   force =     0.00000000    0.00000000    0.00000000
     atom   47 type  1   force =     0.00000000    0.00000000    0.00000000
     atom   48 type  1   force =     0.00000000    0.00000000    0.00000000
     atom   49 type  2   force =     0.00000000    0.00000000    0.00000000
     atom   50 type  2   force =     0.00000000    0.00000000    0.00000000
     atom   51 type  2   force =     0.00000000    0.00000000    0.00000000
     atom   52 type  2   force =     0.00000000    0.00000000    0.00000000
     atom   53 type  1   force =     0.00000000    0.00000000    0.00000000
     atom   54 type  1   force =     0.00000000    0.00000000    0.00000000
     atom   55 type  1   force =     0.00000000    0.00000000    0.00000000
     atom   56 type  1   force =     0.00000000    0.00000000    0.00000000
     atom   57 type  3   force =     0.00000000    0.00000000    0.00000000
     atom   58 type  2   force =     0.00000000    0.00000000    0.00000000
     atom   59 type  2   force =     0.00000000    0.00000000    0.00000000
     atom   60 type  2   force =     0.00000000    0.00000000    0.00000000
     atom   61 type  1   force =     0.00000000    0.00000000    0.00000000
     atom   62 type  1   force =     0.00000000    0.00000000    0.00000000
     atom   63 type  1   force =     0.00000000    0.00000000    0.00000000
     The SCF correction term to forces
     atom    1 type  2   force =     0.00002447    0.00002447    0.00002447
     atom    2 type  2   force =    -0.00000836   -0.00001087   -0.00001087
     atom    3 type  2   force =    -0.00001087   -0.00000836   -0.00001087
     atom    4 type  2   force =    -0.00001087   -0.00001087   -0.00000836
     atom    5 type  1   force =     0.00000380    0.00000852    0.00000852
     atom    6 type  1   force =    -0.00000741   -0.00000741   -0.00000741
     atom    7 type  1   force =     0.00000852    0.00000852    0.00000380
     atom    8 type  1   force =     0.00000852    0.00000380    0.00000852
     atom    9 type  2   force =    -0.00001122   -0.00001122    0.00000106
     atom   10 type  2   force =    -0.00000213    0.00001703   -0.00000763
     atom   11 type  2   force =     0.00001703   -0.00000213   -0.00000763
     atom   12 type  2   force =     0.00001141    0.00001141    0.00003632
     atom   13 type  1   force =    -0.00001102    0.00000228   -0.00000699
     atom   14 type  1   force =     0.00000129    0.00000129    0.00000442
     atom   15 type  1   force =    -0.00001827   -0.00001827   -0.00000110
     atom   16 type  1   force =     0.00000228   -0.00001102   -0.00000699
     atom   17 type  2   force =    -0.00001122    0.00000106   -0.00001122
     atom   18 type  2   force =    -0.00000213   -0.00000763    0.00001703
     atom   19 type  2   force =     0.00001141    0.00003632    0.00001141
     atom   20 type  2   force =     0.00001703   -0.00000763   -0.00000213
     atom   21 type  1   force =    -0.00001102   -0.00000699    0.00000228
     atom   22 type  1   force =     0.00000129    0.00000442    0.00000129
     atom   23 type  1   force =     0.00000228   -0.00000699   -0.00001102
     atom   24 type  1   force =    -0.00001827   -0.00000110   -0.00001827
     atom   25 type  2   force =     0.00003146   -0.00001308   -0.00001308
     atom   26 type  2   force =     0.00004768    0.00000297    0.00000297
     atom   27 type  2   force =    -0.00001696   -0.00002608    0.00000088
     atom   28 type  2   force =    -0.00001696    0.00000088   -0.00002608
     atom   29 type  1   force =     0.00001694    0.00000237    0.00000237
     atom   30 type  1   force =     0.00000342   -0.00000240   -0.00000240
     atom   31 type  1   force =    -0.00002309    0.00002157    0.00000700
     atom   32 type  1   force =    -0.00002309    0.00000700    0.00002157
     atom   33 type  2   force =     0.00000106   -0.00001122   -0.00001122
     atom   34 type  2   force =     0.00003632    0.00001141    0.00001141
     atom   35 type  2   force =    -0.00000763   -0.00000213    0.00001703
     atom   36 type  2   force =    -0.00000763    0.00001703   -0.00000213
     atom   37 type  1   force =    -0.00000110   -0.00001827   -0.00001827
     atom   38 type  1   force =     0.00000442    0.00000129    0.00000129
     atom   39 type  1   force =    -0.00000699    0.00000228   -0.00001102
     atom   40 type  1   force =    -0.00000699   -0.00001102    0.00000228
     atom   41 type  2   force =    -0.00001308    0.00003146   -0.00001308
     atom   42 type  2   force =    -0.00002608   -0.00001696    0.00000088
     atom   43 type  2   force =     0.00000297    0.00004768    0.00000297
     atom   44 type  2   force =     0.00000088   -0.00001696   -0.00002608
     atom   45 type  1   force =     0.00000700   -0.00002309    0.00002157
     atom   46 type  1   force =    -0.00000240    0.00000342   -0.00000240
     atom   47 type  1   force =     0.00002157   -0.00002309    0.00000700
     atom   48 type  1   force =     0.00000237    0.00001694    0.00000237
     atom   49 type  2   force =    -0.00001308   -0.00001308    0.00003146
     atom   50 type  2   force =    -0.00002608    0.00000088   -0.00001696
     atom   51 type  2   force =     0.00000088   -0.00002608   -0.00001696
     atom   52 type  2   force =     0.00000297    0.00000297    0.00004768
     atom   53 type  1   force =     0.00000700    0.00002157   -0.00002309
     atom   54 type  1   force =    -0.00000240   -0.00000240    0.00000342
     atom   55 type  1   force =     0.00000237    0.00000237    0.00001694
     atom   56 type  1   force =     0.00002157    0.00000700   -0.00002309
     atom   57 type  3   force =    -0.00004944   -0.00004944   -0.00004944
     atom   58 type  2   force =    -0.00005580    0.00003959    0.00003959
     atom   59 type  2   force =     0.00003959   -0.00005580    0.00003959
     atom   60 type  2   force =     0.00003959    0.00003959   -0.00005580
     atom   61 type  1   force =    -0.00001739    0.00002610    0.00002610
     atom   62 type  1   force =     0.00002610    0.00002610   -0.00001739
     atom   63 type  1   force =     0.00002610   -0.00001739    0.00002610

     Total force =     0.000458     Total SCF correction =     0.000263
     SCF correction compared to forces is large: reduce conv_thr to get better values

     Computing stress (Cartesian axis) and pressure

          total   stress  (Ry/bohr**3)                   (kbar)     P=       -8.66
  -0.00005884  -0.00000408  -0.00000408           -8.66       -0.60       -0.60
  -0.00000408  -0.00005884  -0.00000408           -0.60       -8.66       -0.60
  -0.00000408  -0.00000408  -0.00005884           -0.60       -0.60       -8.66

     kinetic stress (kbar)  12220.45      3.43      3.43
                                3.43  12220.45      3.43
                                3.43      3.43  12220.45

     local   stress (kbar)  -1478.07    429.43    429.43
                              429.43  -1478.07    429.43
                              429.43    429.43  -1478.07

     nonloc. stress (kbar)  -1088.51     -4.06     -4.06
                               -4.06  -1088.51     -4.06
                               -4.06     -4.06  -1088.51

     hartree stress (kbar)  12170.81   -193.31   -193.31
                             -193.31  12170.81   -193.31
                             -193.31   -193.31  12170.81

     exc-cor stress (kbar)   8234.18      0.04      0.04
                                0.04   8234.18      0.04
                                0.04      0.04   8234.18

     corecor stress (kbar) -13511.70     -0.06     -0.06
                               -0.06 -13511.70     -0.06
                               -0.06     -0.06 -13511.70

     ewald   stress (kbar) -16555.83   -236.07   -236.07
                             -236.07 -16555.83   -236.07
                             -236.07   -236.07 -16555.83

     hubbard stress (kbar)      0.00      0.00      0.00
                                0.00      0.00      0.00
                                0.00      0.00      0.00

     DFT-D   stress (kbar)      0.00      0.00      0.00
                                0.00      0.00      0.00
                                0.00      0.00      0.00

     XDM     stress (kbar)      0.00      0.00      0.00
                                0.00      0.00      0.00
                                0.00      0.00      0.00

     dft-nl  stress (kbar)      0.00      0.00      0.00
                                0.00      0.00      0.00
                                0.00      0.00      0.00

     TS-vdW  stress (kbar)      0.00      0.00      0.00
                                0.00      0.00      0.00
                                0.00      0.00      0.00

     MDB     stress (kbar)      0.00      0.00      0.00
                                0.00      0.00      0.00
                                0.00      0.00      0.00

     3D-RISM stress (kbar)      0.00      0.00      0.00
                                0.00      0.00      0.00
                                0.00      0.00      0.00

     BFGS Geometry Optimization
     Energy error            =      0.0E+00 Ry
     Gradient error          =      8.0E-05 Ry/Bohr

     bfgs converged in   1 scf cycles and   0 bfgs steps
     (criteria: energy <  1.0E-05 Ry, force <  1.0E-04 Ry/Bohr)

     End of BFGS Geometry Optimization

     Final energy             =  -10101.4689803232 Ry
Begin final coordinates

ATOMIC_POSITIONS (crystal)
Zn            0.0003359496        0.0003359496        0.0003359496
Zn            0.0007923696        0.2499957417        0.2499957417
Zn            0.2499957417        0.0007923696        0.2499957417
Zn            0.2499957417        0.2499957417        0.0007923696
S             0.1253288266        0.3748354448        0.3748354448
S             0.1248579843        0.1248579843        0.1248579843
S             0.3748354448        0.3748354448        0.1253288266
S             0.3748354448        0.1253288266        0.3748354448
Zn            0.0025035209        0.0025035209        0.4988740594
Zn            0.0026522256        0.2474779807        0.7504669869
Zn            0.2474779807        0.0026522256        0.7504669869
Zn            0.2524861438        0.2524861438        0.5013026431
S             0.1245827217        0.3746700879        0.8753519813
S             0.1255959954        0.1255959954        0.6240384643
S             0.3761935460        0.3761935460        0.6259080068
S             0.3746700879        0.1245827217        0.8753519813
Zn            0.0025035209        0.4988740594        0.0025035209
Zn            0.0026522256        0.7504669869        0.2474779807
Zn            0.2524861438        0.5013026431        0.2524861438
Zn            0.2474779807        0.7504669869        0.0026522256
S             0.1245827217        0.8753519813        0.3746700879
S             0.1255959954        0.6240384643        0.1255959954
S             0.3746700879        0.8753519813        0.1245827217
S             0.3761935460        0.6259080068        0.3761935460
Zn            0.0039331378        0.5003141219        0.5003141219
Zn            0.0033416405        0.7487307897        0.7487307897
Zn            0.2492190849        0.4964153644        0.7470606835
Zn            0.2492190849        0.7470606835        0.4964153644
S             0.1245380579        0.8747573096        0.8747573096
S             0.1259907632        0.6249127663        0.6249127663
S             0.3726560897        0.8768240843        0.6222655846
S             0.3726560897        0.6222655846        0.8768240843
Zn            0.4988740594        0.0025035209        0.0025035209
Zn            0.5013026431        0.2524861438        0.2524861438
Zn            0.7504669869        0.0026522256        0.2474779807
Zn            0.7504669869        0.2474779807        0.0026522256
S             0.6259080068        0.3761935460        0.3761935460
S             0.6240384643        0.1255959954        0.1255959954
S             0.8753519813        0.3746700879        0.1245827217
S             0.8753519813        0.1245827217        0.3746700879
Zn            0.5003141219        0.0039331378        0.5003141219
Zn            0.4964153644        0.2492190849        0.7470606835
Zn            0.7487307897        0.0033416405        0.7487307897
Zn            0.7470606835        0.2492190849        0.4964153644
S             0.6222655846        0.3726560897        0.8768240843
S             0.6249127663        0.1259907632        0.6249127663
S             0.8768240843        0.3726560897        0.6222655846
S             0.8747573096        0.1245380579        0.8747573096
Zn            0.5003141219        0.5003141219        0.0039331378
Zn            0.4964153644        0.7470606835        0.2492190849
Zn            0.7470606835        0.4964153644        0.2492190849
Zn            0.7487307897        0.7487307897        0.0033416405
S             0.6222655846        0.8768240843        0.3726560897
S             0.6249127663        0.6249127663        0.1259907632
S             0.8747573096        0.8747573096        0.1245380579
S             0.8768240843        0.6222655846        0.3726560897
Cu            0.4700209347        0.4700209347        0.4700209347
Zn            0.4685464902        0.7793025361        0.7793025361
Zn            0.7793025361        0.4685464902        0.7793025361
Zn            0.7793025361        0.7793025361        0.4685464902
S             0.6267301858        0.8759594517        0.8759594517
S             0.8759594517        0.8759594517        0.6267301858
S             0.8759594517        0.6267301858        0.8759594517
End final coordinates

     General routines

     Parallel routines

     PAW routines

   This run was terminated on:   3:51:23  29Jun2024

   JOB DONE.