     Program PWSCF v.7.2 starts on 10Jul2024 at  7:59:32

     Reading input from 2.Cu_vac_in_ZnS.scf.q0.U.2.in

     Current dimensions of program PWSCF are:
     Max number of different atomic species (ntypx) = 10
     Max number of k-points (npk) =  40000
     Max angular momentum in pseudopotentials (lmaxx) =  4
     file S.pbe-n-kjpaw_psl.1.0.0.UPF: wavefunction(s)  3S 3P renormalized
     file Zn.pbe-dnl-kjpaw_psl.1.0.0.UPF: wavefunction(s)  4S 3D renormalized
     file Cu.pbe-spn-kjpaw_psl.1.0.0.UPF: wavefunction(s)  4S 3P 3D renormalized

     K-points division:     npool     =       7
     R & G space division:  proc/nbgrp/npool/nimage =     112
     Subspace diagonalization in iterative solution of the eigenvalue problem:
     one sub-group per band group will be used

     Using Slab Decomposition

     bravais-lattice index     =            1
     lattice parameter (alat)  =      20.5686  a.u.
     unit-cell volume          =    8701.8437 (a.u.)^3
     number of atoms/cell      =           63
     number of atomic types    =            3
     number of electrons       =       577.00
     number of Kohn-Sham states=          347
     kinetic-energy cutoff     =     150.0000  Ry
     charge density cutoff     =     600.0000  Ry
     scf convergence threshold =      1.0E-08
     mixing beta               =       0.7000
     number of iterations used =            8  plain     mixing
     Exchange-correlation= SLA  PW   PBX  PBC
                           (   1   4   3   4   0   0   0)
     Hubbard projectors: ortho-atomic
     Hubbard parameters of DFT+U (Dudarev formulation) in eV:
     U(Zn-3d) =  7.0000
     U(Cu-3d) =  2.0000

     Internal variables: lda_plus_u = T, lda_plus_u_kind = 0

     celldm(1)=  20.568554  celldm(2)=   0.000000  celldm(3)=   0.000000
     celldm(4)=   0.000000  celldm(5)=   0.000000  celldm(6)=   0.000000

     crystal axes: (cart. coord. in units of alat)
               a(1) = (   1.000000   0.000000   0.000000 )
               a(2) = (   0.000000   1.000000   0.000000 )
               a(3) = (   0.000000   0.000000   1.000000 )

     reciprocal axes: (cart. coord. in units 2 pi/alat)
               b(1) = (  1.000000  0.000000  0.000000 )
               b(2) = (  0.000000  1.000000  0.000000 )
               b(3) = (  0.000000  0.000000  1.000000 )

     PseudoPot. # 1 for S  read from file:
     /arf/home/amuhaymin/pseudo/S.pbe-n-kjpaw_psl.1.0.0.UPF
     MD5 check sum: fb45dfebcf3e72a4e1bd4a866ec2e262
     Pseudo is Projector augmented-wave + core cor, Zval =  6.0
     Generated using &quot;atomic&quot; code by A. Dal Corso  v.6.3
     Shape of augmentation charge: PSQ
     Using radial grid of 1151 points,  6 beta functions with:
                l(1) =   0
                l(2) =   0
                l(3) =   1
                l(4) =   1
                l(5) =   2
                l(6) =   2
     Q(r) pseudized with 0 coefficients

     PseudoPot. # 2 for Zn read from file:
     /arf/home/amuhaymin/pseudo/Zn.pbe-dnl-kjpaw_psl.1.0.0.UPF
     MD5 check sum: c608214d9520ac179f507641260889e3
     Pseudo is Projector augmented-wave + core cor, Zval = 12.0
     Generated using &quot;atomic&quot; code by A. Dal Corso  v.6.2.2
     Shape of augmentation charge: PSQ
     Using radial grid of 1201 points,  6 beta functions with:
                l(1) =   0
                l(2) =   0
                l(3) =   1
                l(4) =   1
                l(5) =   2
                l(6) =   2
     Q(r) pseudized with 0 coefficients

     PseudoPot. # 3 for Cu read from file:
     /arf/home/amuhaymin/pseudo/Cu.pbe-spn-kjpaw_psl.1.0.0.UPF
     MD5 check sum: e7cbaad2f97193e5fe23251a619a52b0
     Pseudo is Projector augmented-wave + core cor, Zval = 19.0
     Generated using &quot;atomic&quot; code by A. Dal Corso  v.6.3
     Shape of augmentation charge: PSQ
     Using radial grid of 1199 points,  6 beta functions with:
                l(1) =   0
                l(2) =   0
                l(3) =   1
                l(4) =   1
                l(5) =   2
                l(6) =   2
     Q(r) pseudized with 0 coefficients

     atomic species   valence    mass     pseudopotential
        S              6.00    32.06500     S ( 1.00)
        Zn            12.00    65.38000     Zn( 1.00)
        Cu            19.00    63.54600     Cu( 1.00)

     Starting magnetic structure
     atomic species   magnetization
        S            0.000
        Zn           0.000
        Cu           0.053

      6 Sym. Ops. (no inversion) found

                                    s                        frac. trans.

      isym =  1     identity

 cryst.   s( 1) = (     1          0          0      )
                  (     0          1          0      )
                  (     0          0          1      )

 cart.    s( 1) = (  1.0000000  0.0000000  0.0000000 )
                  (  0.0000000  1.0000000  0.0000000 )
                  (  0.0000000  0.0000000  1.0000000 )

      isym =  2     120 deg rotation - cart. axis [-1,-1,-1]

[...]

      isym =  3     120 deg rotation - cart. axis [1,1,1]

[...]

      isym =  4     inv. 180 deg rotation - cart. axis [1,-1,0]

[...]

      isym =  6     inv. 180 deg rotation - cart. axis [0,1,-1]

 cryst.   s( 6) = (     1          0          0      )
                  (     0          0          1      )
                  (     0          1          0      )

 cart.    s( 6) = (  1.0000000  0.0000000  0.0000000 )
                  (  0.0000000  0.0000000  1.0000000 )
                  (  0.0000000  1.0000000  0.0000000 )

     point group C_3v (3m)
     there are  3 classes
     the character table:

       E     2C3   3s_v
A_1    1.00  1.00  1.00
A_2    1.00  1.00 -1.00
E      2.00 -1.00  0.00

     the symmetry operations in each class and the name of the first element:

     E        1
          identity
     2C3      2    3
          120 deg rotation - cart. axis [-1,-1,-1]
     3s_v     4    5    6
          inv. 180 deg rotation - cart. axis [1,-1,0]

   Cartesian axes

     site n.     atom                  positions (alat units)
         1           Zn  tau(   1) = (   0.0005017   0.0005017   0.0005017  )
         2           Zn  tau(   2) = (   0.0002733   0.2504441   0.2504441  )
         3           Zn  tau(   3) = (   0.2504441   0.0002733   0.2504441  )
         4           Zn  tau(   4) = (   0.2504441   0.2504441   0.0002733  )
         5           S   tau(   5) = (   0.1254681   0.3752409   0.3752409  )
         6           S   tau(   6) = (   0.1253252   0.1253252   0.1253252  )
         7           S   tau(   7) = (   0.3752409   0.3752409   0.1254681  )
         8           S   tau(   8) = (   0.3752409   0.1254681   0.3752409  )
         9           Zn  tau(   9) = (   0.0004057   0.0004057   0.4999486  )
        10           Zn  tau(  10) = (  -0.0000318   0.2512310   0.7499514  )
        11           Zn  tau(  11) = (   0.2512310  -0.0000318   0.7499514  )
        12           Zn  tau(  12) = (   0.2519284   0.2519284   0.5024105  )
        13           S   tau(  13) = (   0.1249800   0.3756617   0.8752108  )
        14           S   tau(  14) = (   0.1249678   0.1249678   0.6254440  )
        15           S   tau(  15) = (   0.3765037   0.3765037   0.6256689  )
        16           S   tau(  16) = (   0.3756617   0.1249800   0.8752108  )
        17           Zn  tau(  17) = (   0.0004057   0.4999486   0.0004057  )
        18           Zn  tau(  18) = (  -0.0000318   0.7499514   0.2512310  )
        19           Zn  tau(  19) = (   0.2519284   0.5024105   0.2519284  )
        20           Zn  tau(  20) = (   0.2512310   0.7499514  -0.0000318  )
        21           S   tau(  21) = (   0.1249800   0.8752108   0.3756617  )
        22           S   tau(  22) = (   0.1249678   0.6254440   0.1249678  )
        23           S   tau(  23) = (   0.3756617   0.8752108   0.1249800  )
        24           S   tau(  24) = (   0.3765037   0.6256689   0.3765037  )
        25           Zn  tau(  25) = (   0.0010914   0.5000642   0.5000642  )
        26           Zn  tau(  26) = (   0.0021637   0.7500396   0.7500396  )
        27           Zn  tau(  27) = (   0.2508470   0.4981828   0.7478374  )
        28           Zn  tau(  28) = (   0.2508470   0.7478374   0.4981828  )
        29           S   tau(  29) = (   0.1259038   0.8752651   0.8752651  )
        30           S   tau(  30) = (   0.1253315   0.6250907   0.6250907  )
        31           S   tau(  31) = (   0.3769656   0.8729585   0.6241981  )
        32           S   tau(  32) = (   0.3769656   0.6241981   0.8729585  )
        33           Zn  tau(  33) = (   0.4999486   0.0004057   0.0004057  )
        34           Zn  tau(  34) = (   0.5024105   0.2519284   0.2519284  )
        35           Zn  tau(  35) = (   0.7499514  -0.0000318   0.2512310  )
        36           Zn  tau(  36) = (   0.7499514   0.2512310  -0.0000318  )
        37           S   tau(  37) = (   0.6256689   0.3765037   0.3765037  )
        38           S   tau(  38) = (   0.6254440   0.1249678   0.1249678  )
        39           S   tau(  39) = (   0.8752108   0.3756617   0.1249800  )
        40           S   tau(  40) = (   0.8752108   0.1249800   0.3756617  )
        41           Zn  tau(  41) = (   0.5000642   0.0010914   0.5000642  )
        42           Zn  tau(  42) = (   0.4981828   0.2508470   0.7478374  )
        43           Zn  tau(  43) = (   0.7500396   0.0021637   0.7500396  )
        44           Zn  tau(  44) = (   0.7478374   0.2508470   0.4981828  )
        45           S   tau(  45) = (   0.6241981   0.3769656   0.8729585  )
        46           S   tau(  46) = (   0.6250907   0.1253315   0.6250907  )
        47           S   tau(  47) = (   0.8729585   0.3769656   0.6241981  )
        48           S   tau(  48) = (   0.8752651   0.1259038   0.8752651  )
        49           Zn  tau(  49) = (   0.5000642   0.5000642   0.0010914  )
        50           Zn  tau(  50) = (   0.4981828   0.7478374   0.2508470  )
        51           Zn  tau(  51) = (   0.7478374   0.4981828   0.2508470  )
        52           Zn  tau(  52) = (   0.7500396   0.7500396   0.0021637  )
        53           S   tau(  53) = (   0.6241981   0.8729585   0.3769656  )
        54           S   tau(  54) = (   0.6250907   0.6250907   0.1253315  )
        55           S   tau(  55) = (   0.8752651   0.8752651   0.1259038  )
        56           S   tau(  56) = (   0.8729585   0.6241981   0.3769656  )
        57           Cu  tau(  57) = (   0.4765770   0.4765770   0.4765770  )
        58           Zn  tau(  58) = (   0.5001109   0.7529186   0.7529186  )
        59           Zn  tau(  59) = (   0.7529186   0.5001109   0.7529186  )
        60           Zn  tau(  60) = (   0.7529186   0.7529186   0.5001109  )
        61           S   tau(  61) = (   0.6271679   0.8749455   0.8749455  )
        62           S   tau(  62) = (   0.8749455   0.8749455   0.6271679  )
        63           S   tau(  63) = (   0.8749455   0.6271679   0.8749455  )

   Crystallographic axes

     site n.     atom                  positions (cryst. coord.)
         1           Zn  tau(   1) = (  0.0005017  0.0005017  0.0005017  )
[...]
     atom  30 (R=0.085)  charge=  3.6426  magn= -0.0001
     atom  31 (R=0.085)  charge=  3.6348  magn=  0.0115
     atom  32 (R=0.085)  charge=  3.6348  magn=  0.0115
     atom  33 (R=0.088)  charge= 10.1123  magn=  0.0025
     atom  34 (R=0.088)  charge= 10.1098  magn=  0.0008
     atom  35 (R=0.088)  charge= 10.1081  magn=  0.0020
     atom  36 (R=0.088)  charge= 10.1081  magn=  0.0020
     atom  37 (R=0.085)  charge=  3.6517  magn=  0.0031
     atom  38 (R=0.085)  charge=  3.6371  magn=  0.0067
     atom  39 (R=0.085)  charge=  3.6405  magn=  0.0007
     atom  40 (R=0.085)  charge=  3.6405  magn=  0.0007
     atom  41 (R=0.088)  charge= 10.1136  magn= -0.0001
     atom  42 (R=0.088)  charge= 10.1161  magn= -0.0000
     atom  43 (R=0.088)  charge= 10.1152  magn= -0.0001
     atom  44 (R=0.088)  charge= 10.1161  magn= -0.0000
     atom  45 (R=0.085)  charge=  3.6348  magn=  0.0115
     atom  46 (R=0.085)  charge=  3.6426  magn= -0.0001
     atom  47 (R=0.085)  charge=  3.6348  magn=  0.0115
     atom  48 (R=0.085)  charge=  3.6402  magn=  0.0010
     atom  49 (R=0.088)  charge= 10.1136  magn= -0.0001
     atom  50 (R=0.088)  charge= 10.1161  magn= -0.0000
     atom  51 (R=0.088)  charge= 10.1161  magn= -0.0000
     atom  52 (R=0.088)  charge= 10.1152  magn= -0.0001
     atom  53 (R=0.085)  charge=  3.6348  magn=  0.0115
     atom  54 (R=0.085)  charge=  3.6426  magn= -0.0001
     atom  55 (R=0.085)  charge=  3.6402  magn=  0.0010
     atom  56 (R=0.085)  charge=  3.6348  magn=  0.0115
     atom  57 (R=0.085)  charge= 17.2106  magn=  0.0092
     atom  58 (R=0.088)  charge= 10.0880  magn=  0.0338
     atom  59 (R=0.088)  charge= 10.0880  magn=  0.0338
     atom  60 (R=0.088)  charge= 10.0880  magn=  0.0338
     atom  61 (R=0.085)  charge=  3.6387  magn=  0.0176
     atom  62 (R=0.085)  charge=  3.6387  magn=  0.0176
     atom  63 (R=0.085)  charge=  3.6387  magn=  0.0176

     End of self-consistent calculation

 ------ SPIN UP ------------

          k = 0.0000 0.0000 0.0000 (269825 PWs)   bands (ev):

  -104.6047 -62.0489 -61.9952 -61.9952  -7.5915  -7.1925  -7.1925  -7.1746
    -7.1598  -7.1598  -7.1123  -7.0022  -7.0022  -6.9835  -6.9500  -6.9499
    -6.9499  -6.9189  -6.9189  -6.9161  -6.9161  -6.9133  -6.9041  -6.8602
    -6.8585  -6.8585  -6.7630  -6.7630  -6.7397  -6.7257  -6.7007  -6.6919
    -6.6919  -6.5875  -6.5875  -3.8969  -3.8828  -3.8828  -3.8823  -3.8758
    -3.8758  -3.8605  -3.8578  -3.8578  -3.8453  -3.8381  -3.8381  -3.8258
    -3.8170  -3.8170  -3.7774  -3.7746  -3.7746  -3.7516  -3.7516  -3.7482
    -3.7448  -3.7448  -3.7371  -3.7371  -3.7367  -3.7253  -3.7253  -3.7245
    -3.7226  -3.7226  -3.7221  -3.7204  -3.7103  -3.7101  -3.7101  -3.7078
    -3.7078  -3.7045  -3.7045  -3.7028  -3.6980  -3.6918  -3.6918  -3.6879
    -3.6859  -3.6823  -3.6823  -3.6801  -3.6726  -3.6726  -3.6643  -3.6643
    -3.6594  -3.6565  -3.6565  -3.6547  -3.6547  -3.6450  -3.6450  -3.6406
    -3.6403  -3.6382  -3.6360  -3.6360  -3.6331  -3.6331  -3.6327  -3.6305
    -3.6139  -3.6084  -3.6084  -3.6011  -3.6011  -3.5967  -3.5961  -3.5852
    -3.5852  -3.5837  -3.5784  -3.5784  -3.5763  -3.5722  -3.5722  -3.5687
    -3.5674  -3.5674  -3.5652  -3.5652  -3.5625  -3.5607  -3.5607  -3.5546
    -3.5546  -3.5537  -3.5497  -3.5497  -3.5456  -3.5381  -3.5362  -3.5354
    -3.5354  -3.5279  -3.5279  -3.5215  -3.5215  -3.5212  -3.5198  -3.5198
    -3.5137  -3.5137  -3.5071  -3.5047  -3.4991  -3.4991  -3.4943  -3.4744
    -3.4744  -3.4671  -3.4671  -3.4657  -3.4546  -3.4546  -3.4534  -3.4506
    -3.4506  -3.4500  -3.4484  -3.4314  -3.4314  -3.4216  -3.2484  -3.2411
    -3.2411  -3.2396  -3.2396  -3.2330  -3.2090  -3.2090  -3.1963  -3.1963
    -3.1938  -3.1392  -3.1208  -3.1208  -3.0949  -3.0141  -3.0141  -3.0074
    -2.9083  -2.8827  -2.8827  -2.8712  -2.8511  -2.8511   0.2045   0.2986
     0.3065   0.3065   0.6545   0.6566   0.6566   0.8467   0.8467   0.8766
     0.8920   0.8997   0.8997   1.0662   1.2049   1.2049   1.2507   1.2507
     1.2718   1.2725   1.2967   1.2967   1.4493   1.4493   1.7377   2.3321
     2.3321   2.3577   2.4988   2.4988   2.5300   2.5300   2.5311   2.5609
     2.5758   2.5758   2.6465   2.7094   2.7094   2.7282   2.7306   2.7424
     2.7424   2.7674   2.7674   2.7750   2.7750   2.7835   2.8204   2.8224
     2.8550   2.8550   3.0081   3.0081   3.0576   3.1712   3.1839   3.1839
     3.3578   3.3578   3.4978   3.6008   3.6008   3.9233   3.9233   4.0191
     4.0191   4.0307   4.0308   4.0517   4.0931   4.0931   4.1690   4.1690
     4.1698   4.2323   4.2323   4.3152   4.3152   4.3204   4.3458   4.3535
     4.3535   4.3812   4.3812   4.3880   4.3913   4.4158   4.4158   4.4449
     4.4503   4.8072   4.8072   4.9552   4.9552   5.1253   5.6322   5.6322
     6.2554   7.7324   8.4427   8.4427   8.7335   8.7729   8.7819   8.7819
     8.9428   8.9428   9.0704   9.5225   9.5225   9.5260   9.7126   9.8651
     9.8651   9.9317   9.9429   9.9429  10.0015  10.0015  10.0033  10.0255
    10.0290  10.0291  10.1761  10.1761  10.1828  10.1840  10.2052  10.2052
    10.2388  10.2388  10.3407  10.6430  10.6497  10.6497  11.0250  11.1505
    11.1505  11.2132  11.2132  11.3302  11.3453  11.3453  11.3722  11.6983
    11.6983  11.7084  11.8506  11.8508  11.8683  11.8752  11.9967  12.0175
    12.0177  12.0352  12.0449

     occupation numbers
     1.0000   1.0000   1.0000   1.0000   1.0000   1.0000   1.0000   1.0000
     1.0000   1.0000   1.0000   1.0000   1.0000   1.0000   1.0000   1.0000
     1.0000   1.0000   1.0000   1.0000   1.0000   1.0000   1.0000   1.0000
     1.0000   1.0000   1.0000   1.0000   1.0000   1.0000   1.0000   1.0000
     1.0000   1.0000   1.0000   1.0000   1.0000   1.0000   1.0000   1.0000
     1.0000   1.0000   1.0000   1.0000   1.0000   1.0000   1.0000   1.0000
     1.0000   1.0000   1.0000   1.0000   1.0000   1.0000   1.0000   1.0000
     1.0000   1.0000   1.0000   1.0000   1.0000   1.0000   1.0000   1.0000
     1.0000   1.0000   1.0000   1.0000   1.0000   1.0000   1.0000   1.0000
     1.0000   1.0000   1.0000   1.0000   1.0000   1.0000   1.0000   1.0000
     1.0000   1.0000   1.0000   1.0000   1.0000   1.0000   1.0000   1.0000
     1.0000   1.0000   1.0000   1.0000   1.0000   1.0000   1.0000   1.0000
     1.0000   1.0000   1.0000   1.0000   1.0000   1.0000   1.0000   1.0000
     1.0000   1.0000   1.0000   1.0000   1.0000   1.0000   1.0000   1.0000
     1.0000   1.0000   1.0000   1.0000   1.0000   1.0000   1.0000   1.0000
     1.0000   1.0000   1.0000   1.0000   1.0000   1.0000   1.0000   1.0000
     1.0000   1.0000   1.0000   1.0000   1.0000   1.0000   1.0000   1.0000
     1.0000   1.0000   1.0000   1.0000   1.0000   1.0000   1.0000   1.0000
     1.0000   1.0000   1.0000   1.0000   1.0000   1.0000   1.0000   1.0000
     1.0000   1.0000   1.0000   1.0000   1.0000   1.0000   1.0000   1.0000
     1.0000   1.0000   1.0000   1.0000   1.0000   1.0000   1.0000   1.0000
     1.0000   1.0000   1.0000   1.0000   1.0000   1.0000   1.0000   1.0000
     1.0000   1.0000   1.0000   1.0000   1.0000   1.0000   1.0000   1.0000
     1.0000   1.0000   1.0000   1.0000   1.0000   1.0000   1.0000   1.0000
     1.0000   1.0000   1.0000   1.0000   1.0000   1.0000   1.0000   1.0000
     1.0000   1.0000   1.0000   1.0000   1.0000   1.0000   1.0000   1.0000
     1.0000   1.0000   1.0000   1.0000   1.0000   1.0000   1.0000   1.0000
     1.0000   1.0000   1.0000   1.0000   1.0000   1.0000   1.0000   1.0000
     1.0000   1.0000   1.0000   1.0000   1.0000   1.0000   1.0000   1.0000
     1.0000   1.0000   1.0000   1.0000   1.0000   1.0000   1.0000   1.0000
     1.0000   1.0000   1.0000   1.0000   1.0000   1.0000   1.0000   1.0000
     1.0000   1.0000   1.0000   1.0000   1.0000   1.0000   1.0000   1.0000
     1.0000   1.0000   1.0000   1.0000   1.0000   1.0000   1.0000   1.0000
     1.0000   1.0000   1.0000   1.0000   1.0000   1.0000   1.0000   1.0000
     1.0000   1.0000   1.0000   1.0000   1.0000   1.0000   1.0000   1.0000
     1.0000   1.0000   1.0000   1.0000   1.0000   1.0000   1.0000   1.0000
     1.0000   0.0000   0.0000   0.0000   0.0000   0.0000   0.0000   0.0000
     0.0000   0.0000   0.0000   0.0000   0.0000   0.0000   0.0000   0.0000
     0.0000   0.0000   0.0000   0.0000   0.0000   0.0000   0.0000   0.0000
     0.0000   0.0000   0.0000   0.0000   0.0000   0.0000   0.0000   0.0000
     0.0000   0.0000   0.0000   0.0000   0.0000   0.0000   0.0000   0.0000
     0.0000   0.0000   0.0000   0.0000   0.0000   0.0000   0.0000   0.0000
     0.0000   0.0000   0.0000   0.0000   0.0000   0.0000   0.0000   0.0000
     0.0000   0.0000   0.0000

[...]

          k =-0.5000-0.5000-0.5000 (269968 PWs)   bands (ev):

[...]

 ------ SPIN DOWN ----------

[...]

          k =-0.2500 0.0000 0.2500 (269929 PWs)   bands (ev):

[...]

          k = 0.2500-0.2500-0.5000 (269988 PWs)   bands (ev):

  -104.5940 -62.0316 -61.9883 -61.9883  -7.4265  -7.3867  -7.2378  -7.2257
    -7.2025  -7.1681  -7.0925  -7.0375  -6.9771  -6.9507  -6.9418  -6.9296
    -6.9124  -6.8797  -6.8729  -6.8646  -6.8585  -6.8364  -6.8314  -6.8175
    -6.8134  -6.7986  -6.7796  -6.7744  -6.7585  -6.7543  -6.7367  -6.7261
    -6.7057  -6.6128  -6.6022  -3.8718  -3.8680  -3.8661  -3.8629  -3.8600
    -3.8553  -3.8535  -3.8281  -3.8274  -3.8203  -3.8181  -3.8171  -3.8088
    -3.8044  -3.8030  -3.7704  -3.7683  -3.7612  -3.7565  -3.7542  -3.7513
    -3.7463  -3.7442  -3.7435  -3.7393  -3.7378  -3.7328  -3.7317  -3.7287
    -3.7259  -3.7204  -3.7185  -3.7143  -3.7137  -3.7109  -3.7071  -3.7040
    -3.7021  -3.6992  -3.6947  -3.6921  -3.6897  -3.6867  -3.6863  -3.6826
    -3.6798  -3.6760  -3.6706  -3.6684  -3.6674  -3.6660  -3.6634  -3.6608
    -3.6580  -3.6575  -3.6538  -3.6518  -3.6495  -3.6483  -3.6451  -3.6404
    -3.6392  -3.6344  -3.6301  -3.6291  -3.6259  -3.6210  -3.6197  -3.6174
    -3.6137  -3.6128  -3.6114  -3.6077  -3.6034  -3.6022  -3.6008  -3.5959
    -3.5901  -3.5894  -3.5863  -3.5812  -3.5805  -3.5800  -3.5773  -3.5768
    -3.5754  -3.5697  -3.5675  -3.5662  -3.5625  -3.5591  -3.5581  -3.5539
    -3.5501  -3.5500  -3.5477  -3.5462  -3.5448  -3.5421  -3.5406  -3.5377
    -3.5350  -3.5340  -3.5321  -3.5303  -3.5277  -3.5258  -3.5169  -3.5140
    -3.5112  -3.5069  -3.5019  -3.4984  -3.4864  -3.4846  -3.4817  -3.4800
    -3.4786  -3.4673  -3.4630  -3.4596  -3.4576  -3.4549  -3.4520  -3.4429
    -3.4418  -3.4399  -3.4332  -3.4306  -3.4235  -3.4015  -3.3833  -3.2993
    -3.2733  -3.2684  -3.2546  -3.1765  -3.1713  -3.1680  -3.1342  -3.1223
    -3.1128  -3.0549  -3.0419  -3.0391  -3.0289  -3.0113  -3.0070  -2.9939
    -2.9752  -2.9632  -2.9554  -2.9420  -2.9366  -2.9245   0.5190   0.5501
     0.6371   0.6990   0.7177   0.7333   0.7524   0.7701   0.7789   0.8042
     0.8134   0.8369   0.8479   0.8703   0.8884   0.8973   0.9870   1.1027
     1.1621   1.2226   1.2762   1.3315   1.3716   1.4235   1.5641   1.6866
     2.1895   2.2639   2.3165   2.3723   2.4089   2.4365   2.4823   2.5124
     2.6151   2.6567   2.6605   2.6681   2.7062   2.7633   2.8182   2.8918
     2.9673   2.9975   3.1356   3.1755   3.2214   3.2402   3.2834   3.3316
     3.3459   3.3623   3.3702   3.3742   3.4148   3.4293   3.4643   3.4668
     3.4918   3.5044   3.5470   3.5600   3.5754   3.5950   3.6128   3.6386
     3.6616   3.7398   3.7609   3.7954   3.8289   3.8537   3.9115   3.9479
     4.0118   4.0172   4.0444   4.1091   4.1413   4.1751   4.1948   4.2206
     4.2705   4.3025   4.3993   4.4584   4.4915   4.5321   4.6190   4.6854
     4.6996   4.7279   4.7896   4.8273   4.9029   4.9209   5.5219   5.5655
     7.1449   8.3548   8.4631   8.9428   8.9669   9.0876   9.1367   9.3059
     9.3627   9.3783   9.4442   9.4912   9.5733   9.5945   9.6093   9.6385
     9.6856   9.7448   9.7691   9.7894   9.8180   9.8661   9.8861   9.9387
     9.9560   9.9812  10.0612  10.0754  10.0972  10.1932  10.2214  10.3346
    10.3618  10.4335  10.4809  10.6311  10.6773  10.7577  10.8101  10.8376
    10.8775  10.9556  11.0119  11.1077  11.2312  11.2763  11.3352  11.4163
    11.4720  11.4807  11.5006  11.5254  11.5756  11.5848  11.6186  11.6295
    11.6344  11.6529  11.6820

     occupation numbers
     1.0000   1.0000   1.0000   1.0000   1.0000   1.0000   1.0000   1.0000
     1.0000   1.0000   1.0000   1.0000   1.0000   1.0000   1.0000   1.0000
     1.0000   1.0000   1.0000   1.0000   1.0000   1.0000   1.0000   1.0000
     1.0000   1.0000   1.0000   1.0000   1.0000   1.0000   1.0000   1.0000
     1.0000   1.0000   1.0000   1.0000   1.0000   1.0000   1.0000   1.0000
     1.0000   1.0000   1.0000   1.0000   1.0000   1.0000   1.0000   1.0000
     1.0000   1.0000   1.0000   1.0000   1.0000   1.0000   1.0000   1.0000
     1.0000   1.0000   1.0000   1.0000   1.0000   1.0000   1.0000   1.0000
     1.0000   1.0000   1.0000   1.0000   1.0000   1.0000   1.0000   1.0000
     1.0000   1.0000   1.0000   1.0000   1.0000   1.0000   1.0000   1.0000
     1.0000   1.0000   1.0000   1.0000   1.0000   1.0000   1.0000   1.0000
     1.0000   1.0000   1.0000   1.0000   1.0000   1.0000   1.0000   1.0000
     1.0000   1.0000   1.0000   1.0000   1.0000   1.0000   1.0000   1.0000
     1.0000   1.0000   1.0000   1.0000   1.0000   1.0000   1.0000   1.0000
     1.0000   1.0000   1.0000   1.0000   1.0000   1.0000   1.0000   1.0000
     1.0000   1.0000   1.0000   1.0000   1.0000   1.0000   1.0000   1.0000
     1.0000   1.0000   1.0000   1.0000   1.0000   1.0000   1.0000   1.0000
     1.0000   1.0000   1.0000   1.0000   1.0000   1.0000   1.0000   1.0000
     1.0000   1.0000   1.0000   1.0000   1.0000   1.0000   1.0000   1.0000
     1.0000   1.0000   1.0000   1.0000   1.0000   1.0000   1.0000   1.0000
     1.0000   1.0000   1.0000   1.0000   1.0000   1.0000   1.0000   1.0000
     1.0000   1.0000   1.0000   1.0000   1.0000   1.0000   1.0000   1.0000
     1.0000   1.0000   1.0000   1.0000   1.0000   1.0000   1.0000   1.0000
     1.0000   1.0000   1.0000   1.0000   1.0000   1.0000   1.0000   1.0000
     1.0000   1.0000   1.0000   1.0000   1.0000   1.0000   1.0000   1.0000
     1.0000   1.0000   1.0000   1.0000   1.0000   1.0000   1.0000   1.0000
     1.0000   1.0000   1.0000   1.0000   1.0000   1.0000   1.0000   1.0000
     1.0000   1.0000   1.0000   1.0000   1.0000   1.0000   1.0000   1.0000
     1.0000   1.0000   1.0000   1.0000   1.0000   1.0000   1.0000   1.0000
     1.0000   1.0000   1.0000   1.0000   1.0000   1.0000   1.0000   1.0000
     1.0000   1.0000   1.0000   1.0000   1.0000   1.0000   1.0000   1.0000
     1.0000   1.0000   1.0000   1.0000   1.0000   1.0000   1.0000   1.0000
     1.0000   1.0000   1.0000   1.0000   1.0000   1.0000   1.0000   1.0000
     1.0000   1.0000   1.0000   1.0000   1.0000   1.0000   1.0000   1.0000
     1.0000   1.0000   1.0000   1.0000   1.0000   1.0000   1.0000   1.0000
     1.0000   1.0000   1.0000   1.0000   1.0000   1.0000   1.0000   1.0000
     0.0000   0.0000   0.0000   0.0000   0.0000   0.0000   0.0000   0.0000
     0.0000   0.0000   0.0000   0.0000   0.0000   0.0000   0.0000   0.0000
     0.0000   0.0000   0.0000   0.0000   0.0000   0.0000   0.0000   0.0000
     0.0000   0.0000   0.0000   0.0000   0.0000   0.0000   0.0000   0.0000
     0.0000   0.0000   0.0000   0.0000   0.0000   0.0000   0.0000   0.0000
     0.0000   0.0000   0.0000   0.0000   0.0000   0.0000   0.0000   0.0000
     0.0000   0.0000   0.0000   0.0000   0.0000   0.0000   0.0000   0.0000
     0.0000   0.0000   0.0000

     the Fermi energy is     6.6576 ev

!    total energy              =  -10100.60059733 Ry
     total all-electron energy =   -139419.129645 Ry
     estimated scf accuracy    <          9.1E-09 Ry
     smearing contrib. (-TS)   =      -0.00000000 Ry
     internal energy E=F+TS    =  -10100.60059733 Ry

     The total energy is F=E-TS. E is the sum of the following terms:
     one-electron contribution =   -3114.89598324 Ry
     hartree contribution      =    2134.04377448 Ry
     xc contribution           =   -1661.79426247 Ry
     ewald contribution        =   -2971.33395925 Ry
     Hubbard energy            =       0.26722174 Ry
     one-center paw contrib.   =   -4486.88738860 Ry
      -> PAW hartree energy AE =     123.68199037 Ry
      -> PAW hartree energy PS =    -123.03447285 Ry
      -> PAW xc energy AE      =    -143.26121577 Ry
      -> PAW xc energy PS      =      47.19798382 Ry
      -> total E_H with PAW    =    2134.69129200 Ry
      -> total E_XC with PAW   =   -1757.85749442 Ry

     total magnetization       =     1.00 Bohr mag/cell
     absolute magnetization    =     1.06 Bohr mag/cell

     convergence has been achieved in  15 iterations

     Writing all to output data dir ./out/Cu_vac_q0_U.save/

     General routines

     Parallel routines

     Hubbard U routines

     PAW routines

   This run was terminated on:   8:11: 2  10Jul2024

   JOB DONE.