     Program PWSCF v.7.2 starts on 29Jun2024 at  1:50:57

     Reading input from 2.Co_in_ZnS.scf.qn1.in

     Current dimensions of program PWSCF are:
     Max number of different atomic species (ntypx) = 10
     Max number of k-points (npk) =  40000
     Max angular momentum in pseudopotentials (lmaxx) =  4
     file S.pbe-n-kjpaw_psl.1.0.0.UPF: wavefunction(s)  3S 3P renormalized
     file Zn.pbe-dnl-kjpaw_psl.1.0.0.UPF: wavefunction(s)  4S 3D renormalized
     file Co.pbe-spn-kjpaw_psl.0.3.1.UPF: wavefunction(s)  3P 3D renormalized

     K-points division:     npool     =       5
     R & G space division:  proc/nbgrp/npool/nimage =     112
     Subspace diagonalization in iterative solution of the eigenvalue problem:
     one sub-group per band group will be used

     Using Slab Decomposition

     bravais-lattice index     =            1
     lattice parameter (alat)  =      20.5686  a.u.
     unit-cell volume          =    8701.8437 (a.u.)^3
     number of atoms/cell      =           64
     number of atomic types    =            3
     number of electrons       =       582.00
     number of Kohn-Sham states=          349
     kinetic-energy cutoff     =     150.0000  Ry
     charge density cutoff     =     600.0000  Ry
     scf convergence threshold =      1.0E-08
     mixing beta               =       0.7000
     number of iterations used =            8  plain     mixing
     Exchange-correlation= SLA  PW   PBX  PBC
                           (   1   4   3   4   0   0   0)

     celldm(1)=  20.568554  celldm(2)=   0.000000  celldm(3)=   0.000000
     celldm(4)=   0.000000  celldm(5)=   0.000000  celldm(6)=   0.000000

     crystal axes: (cart. coord. in units of alat)
               a(1) = (   1.000000   0.000000   0.000000 )
               a(2) = (   0.000000   1.000000   0.000000 )
               a(3) = (   0.000000   0.000000   1.000000 )

     reciprocal axes: (cart. coord. in units 2 pi/alat)
               b(1) = (  1.000000  0.000000  0.000000 )
               b(2) = (  0.000000  1.000000  0.000000 )
               b(3) = (  0.000000  0.000000  1.000000 )

     PseudoPot. # 1 for S  read from file:
     /arf/home/amuhaymin/pseudo/S.pbe-n-kjpaw_psl.1.0.0.UPF
     MD5 check sum: fb45dfebcf3e72a4e1bd4a866ec2e262
     Pseudo is Projector augmented-wave + core cor, Zval =  6.0
     Generated using &quot;atomic&quot; code by A. Dal Corso  v.6.3
     Shape of augmentation charge: PSQ
     Using radial grid of 1151 points,  6 beta functions with:
                l(1) =   0
                l(2) =   0
                l(3) =   1
                l(4) =   1
                l(5) =   2
                l(6) =   2
     Q(r) pseudized with 0 coefficients

     PseudoPot. # 2 for Zn read from file:
     /arf/home/amuhaymin/pseudo/Zn.pbe-dnl-kjpaw_psl.1.0.0.UPF
     MD5 check sum: c608214d9520ac179f507641260889e3
     Pseudo is Projector augmented-wave + core cor, Zval = 12.0
     Generated using &quot;atomic&quot; code by A. Dal Corso  v.6.2.2
     Shape of augmentation charge: PSQ
     Using radial grid of 1201 points,  6 beta functions with:
                l(1) =   0
                l(2) =   0
                l(3) =   1
                l(4) =   1
                l(5) =   2
                l(6) =   2
     Q(r) pseudized with 0 coefficients

     PseudoPot. # 3 for Co read from file:
     /arf/home/amuhaymin/pseudo/Co.pbe-spn-kjpaw_psl.0.3.1.UPF
     MD5 check sum: b0a1ad65bf214e88c1f3d33b20c7d919
     Pseudo is Projector augmented-wave + core cor, Zval = 17.0
     Generated using &quot;atomic&quot; code by A. Dal Corso  v.6.2.2
     Shape of augmentation charge: PSQ
     Using radial grid of 1193 points,  6 beta functions with:
                l(1) =   0
                l(2) =   0
                l(3) =   1
                l(4) =   1
                l(5) =   2
                l(6) =   2
     Q(r) pseudized with 0 coefficients

     atomic species   valence    mass     pseudopotential
        S              6.00    32.06500     S ( 1.00)
        Zn            12.00    65.38000     Zn( 1.00)
        Co            17.00    63.54600     Co( 1.00)

     Starting magnetic structure
     atomic species   magnetization
        S            0.000
        Zn           0.000
        Co           0.118

     24 Sym. Ops. (no inversion) found

                                    s                        frac. trans.

      isym =  1     identity

 cryst.   s( 1) = (     1          0          0      )
                  (     0          1          0      )
                  (     0          0          1      )

 cart.    s( 1) = (  1.0000000  0.0000000  0.0000000 )
                  (  0.0000000  1.0000000  0.0000000 )
                  (  0.0000000  0.0000000  1.0000000 )

      isym =  2     180 deg rotation - cart. axis [0,0,1]

[...]

 cryst.   s( 9) = (     0          1          0      )
                  (     0          0          1      )
                  (     1          0          0      )

 cart.    s( 9) = (  0.0000000  0.0000000  1.0000000 )
                  (  1.0000000  0.0000000  0.0000000 )
                  (  0.0000000  1.0000000  0.0000000 )

[...]

 cryst.   s(10) = (     0         -1          0      )
                  (     0          0         -1      )
                  (     1          0          0      )

 cart.    s(10) = (  0.0000000  0.0000000  1.0000000 )
                  ( -1.0000000  0.0000000  0.0000000 )
                  (  0.0000000 -1.0000000  0.0000000 )

[...]

      isym = 12     120 deg rotation - cart. axis [-1,-1,1]

[...]

      isym = 13     inv. 180 deg rotation - cart. axis [1,1,0]

[...]

      isym = 24     inv.  90 deg rotation - cart. axis [1,0,0]

 cryst.   s(24) = (    -1          0          0      )
                  (     0          0         -1      )
                  (     0          1          0      )

 cart.    s(24) = ( -1.0000000  0.0000000  0.0000000 )
                  (  0.0000000  0.0000000  1.0000000 )
                  (  0.0000000 -1.0000000  0.0000000 )

     point group T_d (-43m)
     there are  5 classes
     the character table:

       E     8C3   3C2   6S4   6s_d
A_1    1.00  1.00  1.00  1.00  1.00
A_2    1.00  1.00  1.00 -1.00 -1.00
E      2.00 -1.00  2.00  0.00  0.00
T_1    3.00  0.00 -1.00  1.00 -1.00
T_2    3.00  0.00 -1.00 -1.00  1.00

     the symmetry operations in each class and the name of the first element:

     E        1
          identity
     8C3      5    7    8    6   12    9   10   11
          120 deg rotation - cart. axis [-1,-1,-1]
     3C2      2    3    4
          180 deg rotation - cart. axis [0,0,1]
     6S4     15   16   20   19   23   24
          inv.  90 deg rotation - cart. axis [0,0,-1]
     6s_d    13   14   17   18   21   22
          inv. 180 deg rotation - cart. axis [1,1,0]

   Cartesian axes

     site n.     atom                  positions (alat units)
         1           Zn  tau(   1) = (   0.0000000   0.0000000   0.0000000  )
         2           Zn  tau(   2) = (   0.0001067   0.2504661   0.2504661  )
         3           Zn  tau(   3) = (   0.2504661   0.0001067   0.2504661  )
         4           Zn  tau(   4) = (   0.2504661   0.2504661   0.0001067  )
         5           S   tau(   5) = (   0.1255071   0.3751040   0.3751040  )
         6           S   tau(   6) = (   0.1250483   0.1250483   0.1250483  )
         7           S   tau(   7) = (   0.3751040   0.3751040   0.1255071  )
         8           S   tau(   8) = (   0.3751040   0.1255071   0.3751040  )
         9           Zn  tau(   9) = (   0.0000000   0.0000000   0.5000000  )
        10           Zn  tau(  10) = (  -0.0001067   0.2504661   0.7495339  )
        11           Zn  tau(  11) = (   0.2504661  -0.0001067   0.7495339  )
        12           Zn  tau(  12) = (   0.2526730   0.2526730   0.5023971  )
        13           S   tau(  13) = (   0.1251956   0.3751201   0.8748044  )
        14           S   tau(  14) = (   0.1251956   0.1251956   0.6248799  )
        15           S   tau(  15) = (   0.3789502   0.3789502   0.6210498  )
        16           S   tau(  16) = (   0.3751201   0.1251956   0.8748044  )
        17           Zn  tau(  17) = (   0.0000000   0.5000000   0.0000000  )
        18           Zn  tau(  18) = (  -0.0001067   0.7495339   0.2504661  )
        19           Zn  tau(  19) = (   0.2526730   0.5023971   0.2526730  )
        20           Zn  tau(  20) = (   0.2504661   0.7495339  -0.0001067  )
        21           S   tau(  21) = (   0.1251956   0.8748044   0.3751201  )
        22           S   tau(  22) = (   0.1251956   0.6248799   0.1251956  )
        23           S   tau(  23) = (   0.3751201   0.8748044   0.1251956  )
        24           S   tau(  24) = (   0.3789502   0.6210498   0.3789502  )
        25           Zn  tau(  25) = (   0.0000000   0.5000000   0.5000000  )
        26           Zn  tau(  26) = (   0.0001067   0.7495339   0.7495339  )
        27           Zn  tau(  27) = (   0.2526730   0.4976029   0.7473270  )
        28           Zn  tau(  28) = (   0.2526730   0.7473270   0.4976029  )
        29           S   tau(  29) = (   0.1250483   0.8749517   0.8749517  )
        30           S   tau(  30) = (   0.1255071   0.6248960   0.6248960  )
        31           S   tau(  31) = (   0.3751040   0.8744929   0.6248960  )
        32           S   tau(  32) = (   0.3751040   0.6248960   0.8744929  )
        33           Zn  tau(  33) = (   0.5000000   0.0000000   0.0000000  )
        34           Zn  tau(  34) = (   0.5023971   0.2526730   0.2526730  )
        35           Zn  tau(  35) = (   0.7495339  -0.0001067   0.2504661  )
        36           Zn  tau(  36) = (   0.7495339   0.2504661  -0.0001067  )
        37           S   tau(  37) = (   0.6210498   0.3789502   0.3789502  )
        38           S   tau(  38) = (   0.6248799   0.1251956   0.1251956  )
        39           S   tau(  39) = (   0.8748044   0.3751201   0.1251956  )
        40           S   tau(  40) = (   0.8748044   0.1251956   0.3751201  )
        41           Zn  tau(  41) = (   0.5000000   0.0000000   0.5000000  )
        42           Zn  tau(  42) = (   0.4976029   0.2526730   0.7473270  )
        43           Zn  tau(  43) = (   0.7495339   0.0001067   0.7495339  )
        44           Zn  tau(  44) = (   0.7473270   0.2526730   0.4976029  )
        45           S   tau(  45) = (   0.6248960   0.3751040   0.8744929  )
        46           S   tau(  46) = (   0.6248960   0.1255071   0.6248960  )
        47           S   tau(  47) = (   0.8744929   0.3751040   0.6248960  )
        48           S   tau(  48) = (   0.8749517   0.1250483   0.8749517  )
        49           Zn  tau(  49) = (   0.5000000   0.5000000   0.0000000  )
        50           Zn  tau(  50) = (   0.4976029   0.7473270   0.2526730  )
        51           Zn  tau(  51) = (   0.7473270   0.4976029   0.2526730  )
        52           Zn  tau(  52) = (   0.7495339   0.7495339   0.0001067  )
        53           S   tau(  53) = (   0.6248960   0.8744929   0.3751040  )
        54           S   tau(  54) = (   0.6248960   0.6248960   0.1255071  )
        55           S   tau(  55) = (   0.8749517   0.8749517   0.1250483  )
[...]
     atom  31 (R=0.086)  charge=  3.7744  magn= -0.0007
     atom  32 (R=0.086)  charge=  3.7744  magn= -0.0007
     atom  33 (R=0.088)  charge= 10.1216  magn= -0.0012
     atom  34 (R=0.088)  charge= 10.1214  magn=  0.0006
     atom  35 (R=0.088)  charge= 10.1210  magn= -0.0006
     atom  36 (R=0.088)  charge= 10.1210  magn= -0.0006
     atom  37 (R=0.086)  charge=  3.7840  magn=  0.0278
     atom  38 (R=0.086)  charge=  3.7749  magn=  0.0008
     atom  39 (R=0.086)  charge=  3.7749  magn=  0.0008
     atom  40 (R=0.086)  charge=  3.7749  magn=  0.0008
     atom  41 (R=0.088)  charge= 10.1209  magn= -0.0002
     atom  42 (R=0.088)  charge= 10.1214  magn=  0.0006
     atom  43 (R=0.088)  charge= 10.1210  magn= -0.0006
     atom  44 (R=0.088)  charge= 10.1214  magn=  0.0006
     atom  45 (R=0.086)  charge=  3.7744  magn= -0.0007
     atom  46 (R=0.086)  charge=  3.7744  magn= -0.0007
     atom  47 (R=0.086)  charge=  3.7744  magn= -0.0007
     atom  48 (R=0.086)  charge=  3.7759  magn= -0.0007
     atom  49 (R=0.088)  charge= 10.1209  magn= -0.0002
     atom  50 (R=0.088)  charge= 10.1214  magn=  0.0006
     atom  51 (R=0.088)  charge= 10.1214  magn=  0.0006
     atom  52 (R=0.088)  charge= 10.1210  magn= -0.0006
     atom  53 (R=0.086)  charge=  3.7744  magn= -0.0007
     atom  54 (R=0.086)  charge=  3.7744  magn= -0.0007
     atom  55 (R=0.086)  charge=  3.7759  magn= -0.0007
     atom  56 (R=0.086)  charge=  3.7744  magn= -0.0007
     atom  57 (R=0.086)  charge= 15.1030  magn=  1.7468
     atom  58 (R=0.088)  charge= 10.1214  magn=  0.0006
     atom  59 (R=0.088)  charge= 10.1214  magn=  0.0006
     atom  60 (R=0.088)  charge= 10.1214  magn=  0.0006
     atom  61 (R=0.086)  charge=  3.7749  magn=  0.0008
     atom  62 (R=0.086)  charge=  3.7840  magn=  0.0278
     atom  63 (R=0.086)  charge=  3.7749  magn=  0.0008
     atom  64 (R=0.086)  charge=  3.7749  magn=  0.0008

     End of self-consistent calculation

 ------ SPIN UP ------------

          k = 0.0000 0.0000 0.0000 (269825 PWs)   bands (ev):

   -88.1291 -51.4357 -51.4357 -51.4357  -7.4395  -6.9059  -6.9059  -6.8990
    -6.8990  -6.8990  -6.8846  -6.5987  -6.5987  -6.5987  -6.5964  -6.5824
    -6.5824  -6.5812  -6.5812  -6.5812  -6.5809  -6.5809  -6.5809  -6.5035
    -6.5035  -6.5035  -6.4716  -6.2795  -6.2795  -6.2795  -6.2513  -6.2513
    -6.2513  -6.1808  -6.1808  -6.1808  -0.7210  -0.7210  -0.7210  -0.7155
    -0.7146  -0.7146  -0.6768  -0.6768  -0.6630  -0.6582  -0.6582  -0.6582
    -0.5954  -0.5954  -0.5954  -0.5935  -0.5935  -0.5788  -0.5788  -0.5788
    -0.5744  -0.5744  -0.5744  -0.5614  -0.5612  -0.5612  -0.5612  -0.5514
    -0.5514  -0.5514  -0.5460  -0.5460  -0.5444  -0.5418  -0.5418  -0.5418
    -0.5355  -0.5355  -0.5355  -0.5313  -0.5313  -0.5313  -0.5247  -0.5247
    -0.5247  -0.5010  -0.5010  -0.4999  -0.4999  -0.4999  -0.4976  -0.4976
    -0.4976  -0.4896  -0.4735  -0.4735  -0.4735  -0.4483  -0.4483  -0.4283
    -0.4283  -0.4283  -0.3996  -0.3996  -0.3996  -0.3957  -0.3957  -0.3957
    -0.3852  -0.3852  -0.3852  -0.3820  -0.3820  -0.3678  -0.3678  -0.3678
    -0.3620  -0.3563  -0.3563  -0.3563  -0.3062  -0.3062  -0.3062  -0.2725
    -0.2725  -0.2636  -0.2636  -0.2636  -0.2635  -0.2635  -0.2635  -0.2520
    -0.2485  -0.2485  -0.2421  -0.2421  -0.2421  -0.2398  -0.2217  -0.2217
    -0.2202  -0.2202  -0.2202  -0.2148  -0.2001  -0.2001  -0.2001  -0.1942
    -0.1942  -0.1904  -0.1904  -0.1904  -0.1846  -0.1846  -0.1846  -0.1763
    -0.1743  -0.1743  -0.1743  -0.1621  -0.1621  -0.1448  -0.1448  -0.1448
    -0.1414  -0.1414  -0.1354  -0.1199  -0.1199  -0.1199  -0.1195  -0.1195
    -0.1195  -0.1076  -0.1076  -0.1076  -0.1010  -0.1010  -0.0847  -0.0847
    -0.0847  -0.0811  -0.0146  -0.0146  -0.0146   0.0144   0.0144   0.0144
     0.0269   0.1509   0.1509   0.1509   0.1922   0.1922   0.1922   0.4009
     0.4009   0.4009   0.4415   1.0345   1.0389   1.0389   1.0751   1.0751
     1.0757   1.0757   1.0757   1.2403   1.5496   1.5496   1.5496   1.6651
     1.6651   1.6837   1.6837   1.6837   1.6890   1.6890   1.6890   1.9866
     2.7923   2.7923   2.7923   2.8034   2.8034   2.8986   2.8986   2.8986
     2.9128   2.9128   2.9128   2.9380   2.9497   2.9497   2.9497   2.9917
     2.9917   3.0851   3.0851   3.0903   3.1011   3.1011   3.1011   3.1257
     3.1257   3.1257   3.1388   3.1388   3.1388   3.2765   3.4044   3.4044
     3.4044   3.4117   3.4117   3.4117   3.9405   3.9405   3.9405   4.3500
     4.3500   4.3500   4.3649   4.3649   4.3649   4.3768   4.3768   4.3768
     4.5123   4.5123   4.5160   4.5160   4.5160   4.6646   4.6646   4.6646
     4.6707   4.6707   4.6707   4.6860   4.6918   4.6918   4.6918   4.7009
     4.7009   4.7460   4.7460   4.7460   5.4018   5.4018   5.4018   6.1179
     6.1179   6.4001   6.4001   6.4001   7.5785   8.8064   8.8064   8.8064
     8.8756   9.0240   9.0240   9.0240   9.6297   9.6297   9.6480   9.9690
     9.9690   9.9773   9.9773   9.9773  10.0274  10.1146  10.1146  10.1333
    10.1333  10.1333  10.1450  10.3014  10.3014  10.3014  10.3086  10.3086
    10.3181  10.3181  10.3181  10.3264  10.3264  10.3264  10.8085  11.2048
    11.2048  11.2048  11.3106  11.3106  11.3106  11.4557  11.4557  11.4557
    11.4636  11.4636  11.9126  11.9518  11.9518  11.9518  12.1378  12.1378
    12.1378  12.1746  12.1746  12.1746  12.1859

     occupation numbers
     1.0000   1.0000   1.0000   1.0000   1.0000   1.0000   1.0000   1.0000
     1.0000   1.0000   1.0000   1.0000   1.0000   1.0000   1.0000   1.0000
     1.0000   1.0000   1.0000   1.0000   1.0000   1.0000   1.0000   1.0000
     1.0000   1.0000   1.0000   1.0000   1.0000   1.0000   1.0000   1.0000
     1.0000   1.0000   1.0000   1.0000   1.0000   1.0000   1.0000   1.0000
     1.0000   1.0000   1.0000   1.0000   1.0000   1.0000   1.0000   1.0000
     1.0000   1.0000   1.0000   1.0000   1.0000   1.0000   1.0000   1.0000
     1.0000   1.0000   1.0000   1.0000   1.0000   1.0000   1.0000   1.0000
     1.0000   1.0000   1.0000   1.0000   1.0000   1.0000   1.0000   1.0000
     1.0000   1.0000   1.0000   1.0000   1.0000   1.0000   1.0000   1.0000
     1.0000   1.0000   1.0000   1.0000   1.0000   1.0000   1.0000   1.0000
     1.0000   1.0000   1.0000   1.0000   1.0000   1.0000   1.0000   1.0000
     1.0000   1.0000   1.0000   1.0000   1.0000   1.0000   1.0000   1.0000
     1.0000   1.0000   1.0000   1.0000   1.0000   1.0000   1.0000   1.0000
     1.0000   1.0000   1.0000   1.0000   1.0000   1.0000   1.0000   1.0000
     1.0000   1.0000   1.0000   1.0000   1.0000   1.0000   1.0000   1.0000
     1.0000   1.0000   1.0000   1.0000   1.0000   1.0000   1.0000   1.0000
     1.0000   1.0000   1.0000   1.0000   1.0000   1.0000   1.0000   1.0000
     1.0000   1.0000   1.0000   1.0000   1.0000   1.0000   1.0000   1.0000
     1.0000   1.0000   1.0000   1.0000   1.0000   1.0000   1.0000   1.0000
     1.0000   1.0000   1.0000   1.0000   1.0000   1.0000   1.0000   1.0000
     1.0000   1.0000   1.0000   1.0000   1.0000   1.0000   1.0000   1.0000
     1.0000   1.0000   1.0000   1.0000   1.0000   1.0000   1.0000   1.0000
     1.0000   1.0000   1.0000   1.0000   1.0000   1.0000   1.0000   1.0000
     1.0000   1.0000   1.0000   1.0000   1.0000   1.0000   1.0000   1.0000
     1.0000   1.0000   1.0000   1.0000   1.0000   1.0000   1.0000   1.0000
     1.0000   1.0000   1.0000   1.0000   1.0000   1.0000   1.0000   1.0000
     1.0000   1.0000   1.0000   1.0000   1.0000   1.0000   1.0000   1.0000
     1.0000   1.0000   1.0000   1.0000   1.0000   1.0000   1.0000   1.0000
     1.0000   1.0000   1.0000   1.0000   1.0000   1.0000   1.0000   1.0000
     1.0000   1.0000   1.0000   1.0000   1.0000   1.0000   1.0000   1.0000
     1.0000   1.0000   1.0000   1.0000   1.0000   1.0000   1.0000   1.0000
     1.0000   1.0000   1.0000   1.0000   1.0000   1.0000   1.0000   1.0000
     1.0000   1.0000   1.0000   1.0000   1.0000   1.0000   1.0000   1.0000
     1.0000   1.0000   1.0000   1.0000   1.0000   1.0000   1.0000   1.0000
     1.0000   1.0000   1.0000   1.0000   1.0000   1.0000   1.0000   1.0000
     1.0000   1.0000   1.0000   1.0000   1.0000   0.0000   0.0000   0.0000
     0.0000   0.0000   0.0000   0.0000   0.0000   0.0000   0.0000   0.0000
     0.0000   0.0000   0.0000   0.0000   0.0000   0.0000   0.0000   0.0000
     0.0000   0.0000   0.0000   0.0000   0.0000   0.0000   0.0000   0.0000
     0.0000   0.0000   0.0000   0.0000   0.0000   0.0000   0.0000   0.0000
     0.0000   0.0000   0.0000   0.0000   0.0000   0.0000   0.0000   0.0000
     0.0000   0.0000   0.0000   0.0000   0.0000   0.0000   0.0000   0.0000
     0.0000   0.0000   0.0000   0.0000   0.0000

[...]

          k =-0.5000-0.5000-0.5000 (269968 PWs)   bands (ev):

[...]

 ------ SPIN DOWN ----------

[...]

          k = 0.2500-0.5000-0.5000 (269956 PWs)   bands (ev):

[...]

          k =-0.5000-0.5000-0.5000 (269968 PWs)   bands (ev):

   -86.0541 -49.4117 -49.4117 -49.4117  -7.0835  -7.0521  -7.0521  -7.0521
    -7.0180  -7.0180  -7.0180  -6.9243  -6.4683  -6.4683  -6.4683  -6.4483
    -6.4343  -6.4343  -6.4339  -6.4339  -6.4339  -6.4293  -6.4293  -6.4293
    -6.4083  -6.4083  -6.4083  -6.4029  -6.4029  -6.4015  -6.4015  -6.4015
    -6.3127  -6.2401  -6.2401  -6.2401  -0.6605  -0.6605  -0.6605  -0.6386
    -0.6367  -0.6367  -0.6306  -0.6306  -0.6306  -0.6303  -0.6303  -0.6303
    -0.6205  -0.6112  -0.6112  -0.6110  -0.6110  -0.6110  -0.6108  -0.6108
    -0.6108  -0.6057  -0.6057  -0.6057  -0.5960  -0.5904  -0.5904  -0.5904
    -0.5831  -0.5831  -0.5806  -0.5806  -0.5806  -0.5721  -0.5721  -0.5721
    -0.5653  -0.5653  -0.5653  -0.5627  -0.5627  -0.5627  -0.5261  -0.5137
    -0.5137  -0.4953  -0.4953  -0.4953  -0.4878  -0.4695  -0.4695  -0.4695
    -0.4670  -0.4670  -0.4670  -0.4584  -0.4584  -0.4584  -0.4561  -0.4561
    -0.4306  -0.4306  -0.4306  -0.4161  -0.4161  -0.4161  -0.4140  -0.4140
    -0.3905  -0.3670  -0.3670  -0.3670  -0.3501  -0.3501  -0.3467  -0.3467
    -0.3467  -0.3446  -0.3446  -0.3446  -0.3365  -0.3365  -0.3365  -0.3321
    -0.3277  -0.3277  -0.3277  -0.3187  -0.3187  -0.3187  -0.2929  -0.2789
    -0.2789  -0.2385  -0.2385  -0.2167  -0.2167  -0.2167  -0.2097  -0.2097
    -0.2097  -0.1958  -0.1958  -0.1956  -0.1956  -0.1956  -0.1824  -0.1824
    -0.1824  -0.1790  -0.1786  -0.1786  -0.1786  -0.1589  -0.1589  -0.1589
    -0.1463  -0.1463  -0.1463  -0.1324  -0.1324  -0.1324  -0.1139  -0.1139
    -0.1083  -0.1083  -0.1083  -0.0997  -0.0997  -0.0997  -0.0909  -0.0710
    -0.0710  -0.0710  -0.0563  -0.0563  -0.0563  -0.0520  -0.0407  -0.0407
    -0.0313  -0.0313  -0.0313  -0.0211  -0.0211  -0.0211  -0.0183  -0.0183
    -0.0078  -0.0078  -0.0078  -0.0070  -0.0070  -0.0070   0.0288   1.0771
     1.0771   1.0771   1.1208   1.1208   1.1239   1.1475   1.1475   1.1475
     1.1498   1.1498   1.1498   1.1763   1.1763   1.1763   1.2075   1.2075
     1.2112   1.2112   1.2112   1.2181   1.2181   1.2181   1.7113   2.6662
     2.6662   2.6662   2.7667   2.7748   2.7748   2.7748   2.9406   3.1031
     3.1031   3.1607   3.1607   3.1607   3.1972   3.1972   3.1972   3.2026
     3.2124   3.2124   3.2355   3.2355   3.2355   3.2400   3.2400   3.2400
     3.2443   3.2443   3.2443   3.2996   3.2996   3.2996   3.4383   3.9058
     3.9058   3.9058   3.9563   3.9563   3.9772   3.9892   3.9892   3.9892
     3.9958   3.9958   3.9958   4.0088   4.0088   4.0202   4.0202   4.0202
     4.0425   4.0425   4.0425   4.0700   4.0716   4.0716   4.0716   4.8684
     4.8684   4.8684   5.0524   5.0524   5.0796   5.0796   5.0796   5.0859
     5.0859   5.0859   5.0952   5.0952   5.1262   5.1262   5.1262   6.9421
     6.9421   8.0103   8.0103   8.0103   8.9136   8.9298   8.9298   8.9298
     8.9593   8.9593   8.9593   9.1479   9.8270   9.8270   9.8324   9.8324
     9.8324   9.8364   9.8364   9.8364   9.8428   9.8466   9.8466   9.8466
     9.8796   9.8796   9.8796   9.8868   9.8868   9.8868   9.9855   9.9855
    10.0399  10.0399  10.0399  10.3592  11.3975  11.3975  11.3975  11.4372
    11.4372  11.4372  11.4414  11.4414  11.4414  11.4494  11.4494  11.4495
    11.4495  11.4615  11.4615  11.4735  11.4735  11.4735  11.5051  11.5051
    11.6777  11.6777  11.6777  12.2419  12.3946

     occupation numbers
     1.0000   1.0000   1.0000   1.0000   1.0000   1.0000   1.0000   1.0000
     1.0000   1.0000   1.0000   1.0000   1.0000   1.0000   1.0000   1.0000
     1.0000   1.0000   1.0000   1.0000   1.0000   1.0000   1.0000   1.0000
     1.0000   1.0000   1.0000   1.0000   1.0000   1.0000   1.0000   1.0000
     1.0000   1.0000   1.0000   1.0000   1.0000   1.0000   1.0000   1.0000
     1.0000   1.0000   1.0000   1.0000   1.0000   1.0000   1.0000   1.0000
     1.0000   1.0000   1.0000   1.0000   1.0000   1.0000   1.0000   1.0000
     1.0000   1.0000   1.0000   1.0000   1.0000   1.0000   1.0000   1.0000
     1.0000   1.0000   1.0000   1.0000   1.0000   1.0000   1.0000   1.0000
     1.0000   1.0000   1.0000   1.0000   1.0000   1.0000   1.0000   1.0000
     1.0000   1.0000   1.0000   1.0000   1.0000   1.0000   1.0000   1.0000
     1.0000   1.0000   1.0000   1.0000   1.0000   1.0000   1.0000   1.0000
     1.0000   1.0000   1.0000   1.0000   1.0000   1.0000   1.0000   1.0000
     1.0000   1.0000   1.0000   1.0000   1.0000   1.0000   1.0000   1.0000
     1.0000   1.0000   1.0000   1.0000   1.0000   1.0000   1.0000   1.0000
     1.0000   1.0000   1.0000   1.0000   1.0000   1.0000   1.0000   1.0000
     1.0000   1.0000   1.0000   1.0000   1.0000   1.0000   1.0000   1.0000
     1.0000   1.0000   1.0000   1.0000   1.0000   1.0000   1.0000   1.0000
     1.0000   1.0000   1.0000   1.0000   1.0000   1.0000   1.0000   1.0000
     1.0000   1.0000   1.0000   1.0000   1.0000   1.0000   1.0000   1.0000
     1.0000   1.0000   1.0000   1.0000   1.0000   1.0000   1.0000   1.0000
     1.0000   1.0000   1.0000   1.0000   1.0000   1.0000   1.0000   1.0000
     1.0000   1.0000   1.0000   1.0000   1.0000   1.0000   1.0000   1.0000
     1.0000   1.0000   1.0000   1.0000   1.0000   1.0000   1.0000   1.0000
     1.0000   1.0000   1.0000   1.0000   1.0000   1.0000   1.0000   1.0000
     1.0000   1.0000   1.0000   1.0000   1.0000   1.0000   1.0000   1.0000
     1.0000   1.0000   1.0000   1.0000   1.0000   1.0000   1.0000   1.0000
     1.0000   1.0000   1.0000   1.0000   1.0000   1.0000   1.0000   1.0000
     1.0000   1.0000   1.0000   1.0000   1.0000   1.0000   1.0000   1.0000
     1.0000   1.0000   1.0000   1.0000   1.0000   1.0000   1.0000   1.0000
     1.0000   1.0000   1.0000   1.0000   1.0000   1.0000   1.0000   1.0000
     1.0000   1.0000   1.0000   1.0000   1.0000   1.0000   1.0000   1.0000
     1.0000   1.0000   1.0000   1.0000   1.0000   1.0000   1.0000   1.0000
     1.0000   1.0000   1.0000   1.0000   1.0000   1.0000   1.0000   1.0000
     1.0000   1.0000   1.0000   1.0000   1.0000   1.0000   1.0000   1.0000
     1.0000   1.0000   1.0000   1.0000   1.0000   1.0000   1.0000   1.0000
     1.0000   0.0000   0.0000   0.0000   0.0000   0.0000   0.0000   0.0000
     0.0000   0.0000   0.0000   0.0000   0.0000   0.0000   0.0000   0.0000
     0.0000   0.0000   0.0000   0.0000   0.0000   0.0000   0.0000   0.0000
     0.0000   0.0000   0.0000   0.0000   0.0000   0.0000   0.0000   0.0000
     0.0000   0.0000   0.0000   0.0000   0.0000   0.0000   0.0000   0.0000
     0.0000   0.0000   0.0000   0.0000   0.0000   0.0000   0.0000   0.0000
     0.0000   0.0000   0.0000   0.0000   0.0000   0.0000   0.0000   0.0000
     0.0000   0.0000   0.0000   0.0000   0.0000

     the Fermi energy is     7.9455 ev

!    total energy              =  -10056.72386184 Ry
     total all-electron energy =   -139694.445773 Ry
     estimated scf accuracy    <          9.9E-10 Ry
     smearing contrib. (-TS)   =      -0.00016390 Ry
     internal energy E=F+TS    =  -10056.72369794 Ry

     The total energy is F=E-TS. E is the sum of the following terms:
     one-electron contribution =   -2933.91059799 Ry
     hartree contribution      =    2042.34394132 Ry
     xc contribution           =   -1658.88935032 Ry
     ewald contribution        =   -2984.38433842 Ry
     one-center paw contrib.   =   -4521.88335254 Ry
      -> PAW hartree energy AE =     123.35954915 Ry
      -> PAW hartree energy PS =    -122.71802049 Ry
      -> PAW xc energy AE      =    -143.21618038 Ry
      -> PAW xc energy PS      =      47.15461984 Ry
      -> total E_H with PAW    =    2042.98546998 Ry
      -> total E_XC with PAW   =   -1754.95091086 Ry

     total magnetization       =     2.03 Bohr mag/cell
     absolute magnetization    =     2.28 Bohr mag/cell

     convergence has been achieved in  17 iterations

     Writing all to output data dir ./out/Co_qn1.save/

     General routines

     Parallel routines

     PAW routines

   This run was terminated on:   1:57:45  29Jun2024

   JOB DONE.