     Program PWSCF v.7.2 starts on  5Jul2024 at  0:14:24

     Reading input from 2.Cu_in_ZnS.scf.qn1.in

     Current dimensions of program PWSCF are:
     Max number of different atomic species (ntypx) = 10
     Max number of k-points (npk) =  40000
     Max angular momentum in pseudopotentials (lmaxx) =  4
     file S.pbe-n-kjpaw_psl.1.0.0.UPF: wavefunction(s)  3S 3P renormalized
     file Zn.pbe-dnl-kjpaw_psl.1.0.0.UPF: wavefunction(s)  4S 3D renormalized
     file Cu.pbe-spn-kjpaw_psl.1.0.0.UPF: wavefunction(s)  4S 3P 3D renormalized

     K-points division:     npool     =      10
     R & G space division:  proc/nbgrp/npool/nimage =     112
     Subspace diagonalization in iterative solution of the eigenvalue problem:
     one sub-group per band group will be used

     Using Slab Decomposition

     bravais-lattice index     =            1
     lattice parameter (alat)  =      20.5686  a.u.
     unit-cell volume          =    8701.8437 (a.u.)^3
     number of atoms/cell      =           64
     number of atomic types    =            3
     number of electrons       =       584.00
     number of Kohn-Sham states=          350
     kinetic-energy cutoff     =     150.0000  Ry
     charge density cutoff     =     600.0000  Ry
     scf convergence threshold =      1.0E-08
     mixing beta               =       0.7000
     number of iterations used =            8  plain     mixing
     Exchange-correlation= SLA  PW   PBX  PBC
                           (   1   4   3   4   0   0   0)

     celldm(1)=  20.568554  celldm(2)=   0.000000  celldm(3)=   0.000000
     celldm(4)=   0.000000  celldm(5)=   0.000000  celldm(6)=   0.000000

     crystal axes: (cart. coord. in units of alat)
               a(1) = (   1.000000   0.000000   0.000000 )
               a(2) = (   0.000000   1.000000   0.000000 )
               a(3) = (   0.000000   0.000000   1.000000 )

     reciprocal axes: (cart. coord. in units 2 pi/alat)
               b(1) = (  1.000000  0.000000  0.000000 )
               b(2) = (  0.000000  1.000000  0.000000 )
               b(3) = (  0.000000  0.000000  1.000000 )

     PseudoPot. # 1 for S  read from file:
     /arf/home/amuhaymin/pseudo/S.pbe-n-kjpaw_psl.1.0.0.UPF
     MD5 check sum: fb45dfebcf3e72a4e1bd4a866ec2e262
     Pseudo is Projector augmented-wave + core cor, Zval =  6.0
     Generated using &quot;atomic&quot; code by A. Dal Corso  v.6.3
     Shape of augmentation charge: PSQ
     Using radial grid of 1151 points,  6 beta functions with:
                l(1) =   0
                l(2) =   0
                l(3) =   1
                l(4) =   1
                l(5) =   2
                l(6) =   2
     Q(r) pseudized with 0 coefficients

     PseudoPot. # 2 for Zn read from file:
     /arf/home/amuhaymin/pseudo/Zn.pbe-dnl-kjpaw_psl.1.0.0.UPF
     MD5 check sum: c608214d9520ac179f507641260889e3
     Pseudo is Projector augmented-wave + core cor, Zval = 12.0
     Generated using &quot;atomic&quot; code by A. Dal Corso  v.6.2.2
     Shape of augmentation charge: PSQ
     Using radial grid of 1201 points,  6 beta functions with:
                l(1) =   0
                l(2) =   0
                l(3) =   1
                l(4) =   1
                l(5) =   2
                l(6) =   2
     Q(r) pseudized with 0 coefficients

     PseudoPot. # 3 for Cu read from file:
     /arf/home/amuhaymin/pseudo/Cu.pbe-spn-kjpaw_psl.1.0.0.UPF
     MD5 check sum: e7cbaad2f97193e5fe23251a619a52b0
     Pseudo is Projector augmented-wave + core cor, Zval = 19.0
     Generated using &quot;atomic&quot; code by A. Dal Corso  v.6.3
     Shape of augmentation charge: PSQ
     Using radial grid of 1199 points,  6 beta functions with:
                l(1) =   0
                l(2) =   0
                l(3) =   1
                l(4) =   1
                l(5) =   2
                l(6) =   2
     Q(r) pseudized with 0 coefficients

     atomic species   valence    mass     pseudopotential
        S              6.00    32.06500     S ( 1.00)
        Zn            12.00    65.38000     Zn( 1.00)
        Cu            19.00    63.54600     Cu( 1.00)

     Starting magnetic structure
     atomic species   magnetization
        S            0.000
        Zn           0.000
        Cu           0.000

     24 Sym. Ops. (no inversion) found

                                    s                        frac. trans.

      isym =  1     identity

 cryst.   s( 1) = (     1          0          0      )
                  (     0          1          0      )
                  (     0          0          1      )

 cart.    s( 1) = (  1.0000000  0.0000000  0.0000000 )
                  (  0.0000000  1.0000000  0.0000000 )
                  (  0.0000000  0.0000000  1.0000000 )

      isym =  2     180 deg rotation - cart. axis [0,0,1]

[...]

 cryst.   s( 9) = (     0          1          0      )
                  (     0          0          1      )
                  (     1          0          0      )

 cart.    s( 9) = (  0.0000000  0.0000000  1.0000000 )
                  (  1.0000000  0.0000000  0.0000000 )
                  (  0.0000000  1.0000000  0.0000000 )

[...]

 cryst.   s(10) = (     0         -1          0      )
                  (     0          0         -1      )
                  (     1          0          0      )

 cart.    s(10) = (  0.0000000  0.0000000  1.0000000 )
                  ( -1.0000000  0.0000000  0.0000000 )
                  (  0.0000000 -1.0000000  0.0000000 )

[...]

      isym = 12     120 deg rotation - cart. axis [-1,-1,1]

[...]

      isym = 13     inv. 180 deg rotation - cart. axis [1,1,0]

[...]

      isym = 24     inv.  90 deg rotation - cart. axis [1,0,0]

 cryst.   s(24) = (    -1          0          0      )
                  (     0          0         -1      )
                  (     0          1          0      )

 cart.    s(24) = ( -1.0000000  0.0000000  0.0000000 )
                  (  0.0000000  0.0000000  1.0000000 )
                  (  0.0000000 -1.0000000  0.0000000 )

     point group T_d (-43m)
     there are  5 classes
     the character table:

       E     8C3   3C2   6S4   6s_d
A_1    1.00  1.00  1.00  1.00  1.00
A_2    1.00  1.00  1.00 -1.00 -1.00
E      2.00 -1.00  2.00  0.00  0.00
T_1    3.00  0.00 -1.00  1.00 -1.00
T_2    3.00  0.00 -1.00 -1.00  1.00

     the symmetry operations in each class and the name of the first element:

     E        1
          identity
     8C3      5    7    8    6   12    9   10   11
          120 deg rotation - cart. axis [-1,-1,-1]
     3C2      2    3    4
          180 deg rotation - cart. axis [0,0,1]
     6S4     15   16   20   19   23   24
          inv.  90 deg rotation - cart. axis [0,0,-1]
     6s_d    13   14   17   18   21   22
          inv. 180 deg rotation - cart. axis [1,1,0]

   Cartesian axes

     site n.     atom                  positions (alat units)
         1           Zn  tau(   1) = (   0.0000000   0.0000000   0.0000000  )
         2           Zn  tau(   2) = (   0.0000961   0.2504753   0.2504753  )
         3           Zn  tau(   3) = (   0.2504753   0.0000961   0.2504753  )
         4           Zn  tau(   4) = (   0.2504753   0.2504753   0.0000961  )
         5           S   tau(   5) = (   0.1254445   0.3750191   0.3750191  )
         6           S   tau(   6) = (   0.1250180   0.1250180   0.1250180  )
         7           S   tau(   7) = (   0.3750191   0.3750191   0.1254445  )
         8           S   tau(   8) = (   0.3750191   0.1254445   0.3750191  )
         9           Zn  tau(   9) = (   0.0000000   0.0000000   0.5000000  )
        10           Zn  tau(  10) = (  -0.0000961   0.2504753   0.7495247  )
        11           Zn  tau(  11) = (   0.2504753  -0.0000961   0.7495247  )
        12           Zn  tau(  12) = (   0.2525221   0.2525221   0.5026076  )
        13           S   tau(  13) = (   0.1249034   0.3750537   0.8750966  )
        14           S   tau(  14) = (   0.1249034   0.1249034   0.6249463  )
        15           S   tau(  15) = (   0.3769253   0.3769253   0.6230747  )
        16           S   tau(  16) = (   0.3750537   0.1249034   0.8750966  )
        17           Zn  tau(  17) = (   0.0000000   0.5000000   0.0000000  )
        18           Zn  tau(  18) = (  -0.0000961   0.7495247   0.2504753  )
        19           Zn  tau(  19) = (   0.2525221   0.5026076   0.2525221  )
        20           Zn  tau(  20) = (   0.2504753   0.7495247  -0.0000961  )
        21           S   tau(  21) = (   0.1249034   0.8750966   0.3750537  )
        22           S   tau(  22) = (   0.1249034   0.6249463   0.1249034  )
        23           S   tau(  23) = (   0.3750537   0.8750966   0.1249034  )
        24           S   tau(  24) = (   0.3769253   0.6230747   0.3769253  )
        25           Zn  tau(  25) = (   0.0000000   0.5000000   0.5000000  )
        26           Zn  tau(  26) = (   0.0000961   0.7495247   0.7495247  )
        27           Zn  tau(  27) = (   0.2525221   0.4973924   0.7474779  )
        28           Zn  tau(  28) = (   0.2525221   0.7474779   0.4973924  )
        29           S   tau(  29) = (   0.1250180   0.8749820   0.8749820  )
        30           S   tau(  30) = (   0.1254445   0.6249809   0.6249809  )
        31           S   tau(  31) = (   0.3750191   0.8745555   0.6249809  )
        32           S   tau(  32) = (   0.3750191   0.6249809   0.8745555  )
        33           Zn  tau(  33) = (   0.5000000   0.0000000   0.0000000  )
        34           Zn  tau(  34) = (   0.5026076   0.2525221   0.2525221  )
        35           Zn  tau(  35) = (   0.7495247  -0.0000961   0.2504753  )
        36           Zn  tau(  36) = (   0.7495247   0.2504753  -0.0000961  )
        37           S   tau(  37) = (   0.6230747   0.3769253   0.3769253  )
        38           S   tau(  38) = (   0.6249463   0.1249034   0.1249034  )
        39           S   tau(  39) = (   0.8750966   0.3750537   0.1249034  )
        40           S   tau(  40) = (   0.8750966   0.1249034   0.3750537  )
        41           Zn  tau(  41) = (   0.5000000   0.0000000   0.5000000  )
        42           Zn  tau(  42) = (   0.4973924   0.2525221   0.7474779  )
        43           Zn  tau(  43) = (   0.7495247   0.0000961   0.7495247  )
        44           Zn  tau(  44) = (   0.7474779   0.2525221   0.4973924  )
        45           S   tau(  45) = (   0.6249809   0.3750191   0.8745555  )
        46           S   tau(  46) = (   0.6249809   0.1254445   0.6249809  )
        47           S   tau(  47) = (   0.8745555   0.3750191   0.6249809  )
        48           S   tau(  48) = (   0.8749820   0.1250180   0.8749820  )
        49           Zn  tau(  49) = (   0.5000000   0.5000000   0.0000000  )
        50           Zn  tau(  50) = (   0.4973924   0.7474779   0.2525221  )
        51           Zn  tau(  51) = (   0.7474779   0.4973924   0.2525221  )
        52           Zn  tau(  52) = (   0.7495247   0.7495247   0.0000961  )
        53           S   tau(  53) = (   0.6249809   0.8745555   0.3750191  )
        54           S   tau(  54) = (   0.6249809   0.6249809   0.1254445  )
        55           S   tau(  55) = (   0.8749820   0.8749820   0.1250180  )
[...]
     atom  31 (R=0.088)  charge=  3.8879  magn=  0.0000
     atom  32 (R=0.088)  charge=  3.8879  magn=  0.0000
     atom  33 (R=0.088)  charge= 10.0997  magn=  0.0000
     atom  34 (R=0.088)  charge= 10.0986  magn= -0.0000
     atom  35 (R=0.088)  charge= 10.0978  magn=  0.0000
     atom  36 (R=0.088)  charge= 10.0978  magn=  0.0000
     atom  37 (R=0.088)  charge=  3.8974  magn=  0.0000
     atom  38 (R=0.088)  charge=  3.8899  magn= -0.0000
     atom  39 (R=0.088)  charge=  3.8899  magn= -0.0000
     atom  40 (R=0.088)  charge=  3.8899  magn= -0.0000
     atom  41 (R=0.088)  charge= 10.0970  magn= -0.0000
     atom  42 (R=0.088)  charge= 10.0986  magn= -0.0000
     atom  43 (R=0.088)  charge= 10.0978  magn=  0.0000
     atom  44 (R=0.088)  charge= 10.0986  magn= -0.0000
     atom  45 (R=0.088)  charge=  3.8879  magn=  0.0000
     atom  46 (R=0.088)  charge=  3.8879  magn=  0.0000
     atom  47 (R=0.088)  charge=  3.8879  magn=  0.0000
     atom  48 (R=0.088)  charge=  3.8900  magn= -0.0000
     atom  49 (R=0.088)  charge= 10.0970  magn= -0.0000
     atom  50 (R=0.088)  charge= 10.0986  magn= -0.0000
     atom  51 (R=0.088)  charge= 10.0986  magn= -0.0000
     atom  52 (R=0.088)  charge= 10.0978  magn=  0.0000
     atom  53 (R=0.088)  charge=  3.8879  magn=  0.0000
     atom  54 (R=0.088)  charge=  3.8879  magn=  0.0000
     atom  55 (R=0.088)  charge=  3.8900  magn= -0.0000
     atom  56 (R=0.088)  charge=  3.8879  magn=  0.0000
     atom  57 (R=0.088)  charge= 17.3508  magn=  0.0000
     atom  58 (R=0.088)  charge= 10.0986  magn= -0.0000
     atom  59 (R=0.088)  charge= 10.0986  magn= -0.0000
     atom  60 (R=0.088)  charge= 10.0986  magn= -0.0000
     atom  61 (R=0.088)  charge=  3.8899  magn= -0.0000
     atom  62 (R=0.088)  charge=  3.8974  magn=  0.0000
     atom  63 (R=0.088)  charge=  3.8899  magn= -0.0000
     atom  64 (R=0.088)  charge=  3.8899  magn= -0.0000

     End of self-consistent calculation

 ------ SPIN UP ------------

          k = 0.0000 0.0000 0.0000 (269825 PWs)   bands (ev):

  -104.4307 -61.8330 -61.8330 -61.8330  -7.4527  -6.9256  -6.9256  -6.9138
    -6.9138  -6.9138  -6.8805  -6.6184  -6.6184  -6.6184  -6.6132  -6.6016
    -6.6016  -6.5988  -6.5988  -6.5988  -6.5975  -6.5975  -6.5975  -6.4916
    -6.4916  -6.4916  -6.3949  -6.2993  -6.2993  -6.2993  -6.2690  -6.2690
    -6.2690  -6.1277  -6.1277  -6.1277  -0.7430  -0.7430  -0.7430  -0.7363
    -0.7363  -0.7351  -0.6960  -0.6960  -0.6798  -0.6780  -0.6780  -0.6780
    -0.6211  -0.6211  -0.6211  -0.6186  -0.6186  -0.6019  -0.6019  -0.6019
    -0.5982  -0.5982  -0.5982  -0.5857  -0.5857  -0.5857  -0.5846  -0.5731
    -0.5731  -0.5731  -0.5651  -0.5651  -0.5651  -0.5646  -0.5646  -0.5611
    -0.5540  -0.5540  -0.5540  -0.5506  -0.5506  -0.5506  -0.5404  -0.5404
    -0.5404  -0.5148  -0.5148  -0.5148  -0.5132  -0.5132  -0.5097  -0.5097
    -0.5097  -0.5034  -0.4837  -0.4837  -0.4837  -0.4593  -0.4593  -0.4459
    -0.4459  -0.4459  -0.4168  -0.4168  -0.4168  -0.4113  -0.4113  -0.4113
    -0.4027  -0.4027  -0.4027  -0.3999  -0.3999  -0.3818  -0.3818  -0.3818
    -0.3702  -0.3701  -0.3701  -0.3701  -0.3175  -0.3175  -0.3175  -0.2985
    -0.2985  -0.2871  -0.2871  -0.2871  -0.2851  -0.2851  -0.2851  -0.2715
    -0.2715  -0.2703  -0.2638  -0.2591  -0.2591  -0.2591  -0.2416  -0.2416
    -0.2416  -0.2393  -0.2393  -0.2280  -0.2222  -0.2222  -0.2159  -0.2149
    -0.2149  -0.2086  -0.2086  -0.2086  -0.2070  -0.2070  -0.2070  -0.1978
    -0.1843  -0.1843  -0.1843  -0.1768  -0.1768  -0.1532  -0.1532  -0.1529
    -0.1525  -0.1525  -0.1525  -0.1276  -0.1276  -0.1276  -0.1260  -0.1260
    -0.1260  -0.1198  -0.1198  -0.1198  -0.1111  -0.1111  -0.0924  -0.0924
    -0.0924  -0.0902  -0.0214  -0.0214  -0.0214  -0.0007  -0.0007  -0.0007
     0.0151   0.1438   0.1438   0.1438   0.1768   0.1768   0.1768   0.3889
     0.3889   0.3889   0.4277   1.0059   1.0143   1.0143   1.0576   1.0576
     1.0576   1.0675   1.0675   1.2529   1.5736   1.5736   1.5736   1.6452
     1.6452   1.6716   1.6716   1.6716   1.6752   1.6752   1.6752   2.0055
     2.8347   2.8347   2.8519   2.8519   2.8519   2.8908   2.8908   2.8908
     2.8919   2.8919   2.8919   2.9176   2.9409   2.9409   2.9409   2.9760
     2.9760   3.0710   3.0741   3.0741   3.0883   3.0883   3.0883   3.1080
     3.1080   3.1080   3.1579   3.1579   3.1579   3.2927   3.4033   3.4033
     3.4033   3.4135   3.4135   3.4135   4.0548   4.0548   4.0548   4.3401
     4.3401   4.3401   4.3492   4.3492   4.3492   4.3829   4.3829   4.3829
     4.5128   4.5128   4.5225   4.5225   4.5225   4.6444   4.6444   4.6444
     4.6483   4.6483   4.6483   4.6660   4.6733   4.6733   4.6733   4.6823
     4.6823   4.7566   4.7566   4.7566   5.4045   5.4045   5.4045   5.6286
     5.6286   6.3138   6.3138   6.3138   7.5708   8.7962   8.7962   8.7962
     8.8583   9.0106   9.0106   9.0106   9.6084   9.6084   9.6318   9.9593
     9.9593   9.9716   9.9716   9.9716  10.0266  10.0961  10.0961  10.1221
    10.1221  10.1221  10.1390  10.2918  10.2918  10.2918  10.2956  10.2956
    10.3119  10.3119  10.3119  10.3306  10.3306  10.3306  10.7472  11.2079
    11.2079  11.2079  11.2902  11.2902  11.2902  11.4559  11.4559  11.4564
    11.4564  11.4564  11.8445  11.9409  11.9409  11.9409  12.1392  12.1392
    12.1393  12.1625  12.1625  12.1625  12.1706  12.1706

     occupation numbers
     1.0000   1.0000   1.0000   1.0000   1.0000   1.0000   1.0000   1.0000
     1.0000   1.0000   1.0000   1.0000   1.0000   1.0000   1.0000   1.0000
     1.0000   1.0000   1.0000   1.0000   1.0000   1.0000   1.0000   1.0000
     1.0000   1.0000   1.0000   1.0000   1.0000   1.0000   1.0000   1.0000
     1.0000   1.0000   1.0000   1.0000   1.0000   1.0000   1.0000   1.0000
     1.0000   1.0000   1.0000   1.0000   1.0000   1.0000   1.0000   1.0000
     1.0000   1.0000   1.0000   1.0000   1.0000   1.0000   1.0000   1.0000
     1.0000   1.0000   1.0000   1.0000   1.0000   1.0000   1.0000   1.0000
     1.0000   1.0000   1.0000   1.0000   1.0000   1.0000   1.0000   1.0000
     1.0000   1.0000   1.0000   1.0000   1.0000   1.0000   1.0000   1.0000
     1.0000   1.0000   1.0000   1.0000   1.0000   1.0000   1.0000   1.0000
     1.0000   1.0000   1.0000   1.0000   1.0000   1.0000   1.0000   1.0000
     1.0000   1.0000   1.0000   1.0000   1.0000   1.0000   1.0000   1.0000
     1.0000   1.0000   1.0000   1.0000   1.0000   1.0000   1.0000   1.0000
     1.0000   1.0000   1.0000   1.0000   1.0000   1.0000   1.0000   1.0000
     1.0000   1.0000   1.0000   1.0000   1.0000   1.0000   1.0000   1.0000
     1.0000   1.0000   1.0000   1.0000   1.0000   1.0000   1.0000   1.0000
     1.0000   1.0000   1.0000   1.0000   1.0000   1.0000   1.0000   1.0000
     1.0000   1.0000   1.0000   1.0000   1.0000   1.0000   1.0000   1.0000
     1.0000   1.0000   1.0000   1.0000   1.0000   1.0000   1.0000   1.0000
     1.0000   1.0000   1.0000   1.0000   1.0000   1.0000   1.0000   1.0000
     1.0000   1.0000   1.0000   1.0000   1.0000   1.0000   1.0000   1.0000
     1.0000   1.0000   1.0000   1.0000   1.0000   1.0000   1.0000   1.0000
     1.0000   1.0000   1.0000   1.0000   1.0000   1.0000   1.0000   1.0000
     1.0000   1.0000   1.0000   1.0000   1.0000   1.0000   1.0000   1.0000
     1.0000   1.0000   1.0000   1.0000   1.0000   1.0000   1.0000   1.0000
     1.0000   1.0000   1.0000   1.0000   1.0000   1.0000   1.0000   1.0000
     1.0000   1.0000   1.0000   1.0000   1.0000   1.0000   1.0000   1.0000
     1.0000   1.0000   1.0000   1.0000   1.0000   1.0000   1.0000   1.0000
     1.0000   1.0000   1.0000   1.0000   1.0000   1.0000   1.0000   1.0000
     1.0000   1.0000   1.0000   1.0000   1.0000   1.0000   1.0000   1.0000
     1.0000   1.0000   1.0000   1.0000   1.0000   1.0000   1.0000   1.0000
     1.0000   1.0000   1.0000   1.0000   1.0000   1.0000   1.0000   1.0000
     1.0000   1.0000   1.0000   1.0000   1.0000   1.0000   1.0000   1.0000
     1.0000   1.0000   1.0000   1.0000   1.0000   1.0000   1.0000   1.0000
     1.0000   1.0000   1.0000   1.0000   1.0000   1.0000   1.0000   1.0000
     1.0000   1.0000   1.0000   1.0000   0.0000   0.0000   0.0000   0.0000
     0.0000   0.0000   0.0000   0.0000   0.0000   0.0000   0.0000   0.0000
     0.0000   0.0000   0.0000   0.0000   0.0000   0.0000   0.0000   0.0000
     0.0000   0.0000   0.0000   0.0000   0.0000   0.0000   0.0000   0.0000
     0.0000   0.0000   0.0000   0.0000   0.0000   0.0000   0.0000   0.0000
     0.0000   0.0000   0.0000   0.0000   0.0000   0.0000   0.0000   0.0000
     0.0000   0.0000   0.0000   0.0000   0.0000   0.0000   0.0000   0.0000
     0.0000   0.0000   0.0000   0.0000   0.0000   0.0000

[...]

          k =-0.5000-0.5000-0.5000 (269968 PWs)   bands (ev):

[...]

 ------ SPIN DOWN ----------

[...]

          k = 0.2500-0.5000-0.5000 (269956 PWs)   bands (ev):

[...]

          k =-0.5000-0.5000-0.5000 (269968 PWs)   bands (ev):

  -104.4306 -61.8330 -61.8330 -61.8330  -7.1066  -7.0735  -7.0735  -7.0735
    -7.0319  -7.0319  -7.0319  -6.9094  -6.4901  -6.4901  -6.4901  -6.4678
    -6.4555  -6.4555  -6.4539  -6.4539  -6.4539  -6.4484  -6.4484  -6.4484
    -6.4247  -6.4247  -6.4247  -6.4176  -6.4176  -6.4171  -6.4171  -6.4171
    -6.2818  -6.2046  -6.2046  -6.2046  -0.6852  -0.6852  -0.6852  -0.6609
    -0.6609  -0.6609  -0.6555  -0.6555  -0.6555  -0.6521  -0.6521  -0.6521
    -0.6442  -0.6326  -0.6326  -0.6322  -0.6322  -0.6322  -0.6320  -0.6320
    -0.6320  -0.6280  -0.6280  -0.6280  -0.6108  -0.6102  -0.6102  -0.6102
    -0.6018  -0.6018  -0.6003  -0.6003  -0.6003  -0.5876  -0.5876  -0.5876
    -0.5828  -0.5828  -0.5828  -0.5786  -0.5786  -0.5786  -0.5431  -0.5307
    -0.5307  -0.5108  -0.5088  -0.5088  -0.5088  -0.4912  -0.4912  -0.4912
    -0.4864  -0.4864  -0.4864  -0.4769  -0.4769  -0.4769  -0.4742  -0.4742
    -0.4438  -0.4438  -0.4438  -0.4341  -0.4341  -0.4325  -0.4325  -0.4325
    -0.4002  -0.3887  -0.3887  -0.3887  -0.3684  -0.3684  -0.3684  -0.3664
    -0.3664  -0.3605  -0.3605  -0.3605  -0.3513  -0.3513  -0.3513  -0.3486
    -0.3419  -0.3419  -0.3419  -0.3320  -0.3320  -0.3320  -0.3050  -0.2892
    -0.2892  -0.2622  -0.2622  -0.2397  -0.2397  -0.2397  -0.2315  -0.2315
    -0.2315  -0.2198  -0.2198  -0.2157  -0.2157  -0.2157  -0.2061  -0.2061
    -0.2061  -0.1998  -0.1945  -0.1945  -0.1945  -0.1722  -0.1722  -0.1722
    -0.1622  -0.1622  -0.1622  -0.1457  -0.1457  -0.1457  -0.1194  -0.1194
    -0.1192  -0.1192  -0.1192  -0.1068  -0.1068  -0.1068  -0.0987  -0.0819
    -0.0819  -0.0819  -0.0767  -0.0767  -0.0767  -0.0736  -0.0596  -0.0596
    -0.0486  -0.0486  -0.0486  -0.0322  -0.0322  -0.0322  -0.0313  -0.0313
    -0.0203  -0.0203  -0.0203  -0.0135  -0.0135  -0.0135   0.0268   1.0732
     1.0732   1.0732   1.1020   1.1032   1.1032   1.1251   1.1251   1.1251
     1.1267   1.1267   1.1267   1.1612   1.1612   1.1612   1.1922   1.1922
     1.2008   1.2008   1.2008   1.2076   1.2076   1.2076   1.6847   2.6438
     2.6438   2.6438   2.7513   2.7636   2.7636   2.7636   2.9072   3.1102
     3.1102   3.1349   3.1349   3.1349   3.1767   3.1767   3.1767   3.1819
     3.1948   3.1948   3.2157   3.2157   3.2157   3.2160   3.2160   3.2160
     3.2283   3.2283   3.2283   3.3009   3.3009   3.3009   3.4074   3.8270
     3.8270   3.8270   3.9363   3.9363   3.9525   3.9730   3.9730   3.9730
     3.9773   3.9773   3.9773   3.9842   3.9842   4.0101   4.0101   4.0101
     4.0285   4.0285   4.0285   4.0572   4.0630   4.0630   4.0630   4.7168
     4.7168   4.7168   4.9747   4.9747   5.0670   5.0670   5.0670   5.0747
     5.0747   5.0747   5.0785   5.0785   5.1118   5.1118   5.1118   5.6353
     5.6353   6.3037   6.3037   6.3037   8.9065   8.9275   8.9275   8.9275
     8.9434   8.9434   8.9434   9.1235   9.8105   9.8105   9.8114   9.8114
     9.8114   9.8246   9.8246   9.8246   9.8330   9.8330   9.8330   9.8402
     9.8655   9.8655   9.8655   9.8695   9.8695   9.8695   9.9297   9.9297
     9.9795   9.9795   9.9795  10.2660  11.4147  11.4147  11.4147  11.4293
    11.4293  11.4293  11.4350  11.4350  11.4408  11.4408  11.4408  11.4421
    11.4600  11.4600  11.4600  11.4612  11.4612  11.4612  11.4871  11.4871
    11.5970  11.5970  11.5970  12.1083  12.3864  12.3876

     occupation numbers
     1.0000   1.0000   1.0000   1.0000   1.0000   1.0000   1.0000   1.0000
     1.0000   1.0000   1.0000   1.0000   1.0000   1.0000   1.0000   1.0000
     1.0000   1.0000   1.0000   1.0000   1.0000   1.0000   1.0000   1.0000
     1.0000   1.0000   1.0000   1.0000   1.0000   1.0000   1.0000   1.0000
     1.0000   1.0000   1.0000   1.0000   1.0000   1.0000   1.0000   1.0000
     1.0000   1.0000   1.0000   1.0000   1.0000   1.0000   1.0000   1.0000
     1.0000   1.0000   1.0000   1.0000   1.0000   1.0000   1.0000   1.0000
     1.0000   1.0000   1.0000   1.0000   1.0000   1.0000   1.0000   1.0000
     1.0000   1.0000   1.0000   1.0000   1.0000   1.0000   1.0000   1.0000
     1.0000   1.0000   1.0000   1.0000   1.0000   1.0000   1.0000   1.0000
     1.0000   1.0000   1.0000   1.0000   1.0000   1.0000   1.0000   1.0000
     1.0000   1.0000   1.0000   1.0000   1.0000   1.0000   1.0000   1.0000
     1.0000   1.0000   1.0000   1.0000   1.0000   1.0000   1.0000   1.0000
     1.0000   1.0000   1.0000   1.0000   1.0000   1.0000   1.0000   1.0000
     1.0000   1.0000   1.0000   1.0000   1.0000   1.0000   1.0000   1.0000
     1.0000   1.0000   1.0000   1.0000   1.0000   1.0000   1.0000   1.0000
     1.0000   1.0000   1.0000   1.0000   1.0000   1.0000   1.0000   1.0000
     1.0000   1.0000   1.0000   1.0000   1.0000   1.0000   1.0000   1.0000
     1.0000   1.0000   1.0000   1.0000   1.0000   1.0000   1.0000   1.0000
     1.0000   1.0000   1.0000   1.0000   1.0000   1.0000   1.0000   1.0000
     1.0000   1.0000   1.0000   1.0000   1.0000   1.0000   1.0000   1.0000
     1.0000   1.0000   1.0000   1.0000   1.0000   1.0000   1.0000   1.0000
     1.0000   1.0000   1.0000   1.0000   1.0000   1.0000   1.0000   1.0000
     1.0000   1.0000   1.0000   1.0000   1.0000   1.0000   1.0000   1.0000
     1.0000   1.0000   1.0000   1.0000   1.0000   1.0000   1.0000   1.0000
     1.0000   1.0000   1.0000   1.0000   1.0000   1.0000   1.0000   1.0000
     1.0000   1.0000   1.0000   1.0000   1.0000   1.0000   1.0000   1.0000
     1.0000   1.0000   1.0000   1.0000   1.0000   1.0000   1.0000   1.0000
     1.0000   1.0000   1.0000   1.0000   1.0000   1.0000   1.0000   1.0000
     1.0000   1.0000   1.0000   1.0000   1.0000   1.0000   1.0000   1.0000
     1.0000   1.0000   1.0000   1.0000   1.0000   1.0000   1.0000   1.0000
     1.0000   1.0000   1.0000   1.0000   1.0000   1.0000   1.0000   1.0000
     1.0000   1.0000   1.0000   1.0000   1.0000   1.0000   1.0000   1.0000
     1.0000   1.0000   1.0000   1.0000   1.0000   1.0000   1.0000   1.0000
     1.0000   1.0000   1.0000   1.0000   1.0000   1.0000   1.0000   1.0000
     1.0000   1.0000   1.0000   1.0000   1.0000   1.0000   1.0000   1.0000
     1.0000   1.0000   1.0000   1.0000   0.0000   0.0000   0.0000   0.0000
     0.0000   0.0000   0.0000   0.0000   0.0000   0.0000   0.0000   0.0000
     0.0000   0.0000   0.0000   0.0000   0.0000   0.0000   0.0000   0.0000
     0.0000   0.0000   0.0000   0.0000   0.0000   0.0000   0.0000   0.0000
     0.0000   0.0000   0.0000   0.0000   0.0000   0.0000   0.0000   0.0000
     0.0000   0.0000   0.0000   0.0000   0.0000   0.0000   0.0000   0.0000
     0.0000   0.0000   0.0000   0.0000   0.0000   0.0000   0.0000   0.0000
     0.0000   0.0000   0.0000   0.0000   0.0000   0.0000

     the Fermi energy is     7.0351 ev

!    total energy              =  -10166.97328425 Ry
     total all-electron energy =   -140217.603453 Ry
     estimated scf accuracy    <          1.9E-09 Ry
     smearing contrib. (-TS)   =      -0.00000000 Ry
     internal energy E=F+TS    =  -10166.97328425 Ry

     The total energy is F=E-TS. E is the sum of the following terms:
     one-electron contribution =   -3072.49205394 Ry
     hartree contribution      =    2116.32870898 Ry
     xc contribution           =   -1666.53782845 Ry
     ewald contribution        =   -3011.12474655 Ry
     one-center paw contrib.   =   -4533.14736429 Ry
      -> PAW hartree energy AE =     123.37484419 Ry
      -> PAW hartree energy PS =    -122.73329219 Ry
      -> PAW xc energy AE      =    -143.21728725 Ry
      -> PAW xc energy PS      =      47.15571846 Ry
      -> total E_H with PAW    =    2116.97026097 Ry
      -> total E_XC with PAW   =   -1762.59939724 Ry

     total magnetization       =    -0.00 Bohr mag/cell
     absolute magnetization    =     0.00 Bohr mag/cell

     convergence has been achieved in  13 iterations

     Writing all to output data dir ./out/Cu_qn1.save/

     General routines

     Parallel routines

     PAW routines

   This run was terminated on:   0:17:39   5Jul2024

   JOB DONE.