     Program PWSCF v.7.2 starts on 25Jul2024 at  8:31: 3

     Reading input from 1.Cu_vac_in_ZnS.scf.qp1.unrlxd.U5.in

     Current dimensions of program PWSCF are:
     Max number of different atomic species (ntypx) = 10
     Max number of k-points (npk) =  40000
     Max angular momentum in pseudopotentials (lmaxx) =  4
     file S.pbe-n-kjpaw_psl.1.0.0.UPF: wavefunction(s)  3S 3P renormalized
     file Zn.pbe-dnl-kjpaw_psl.1.0.0.UPF: wavefunction(s)  4S 3D renormalized
     file Cu.pbe-spn-kjpaw_psl.1.0.0.UPF: wavefunction(s)  4S 3P 3D renormalized

     K-points division:     npool     =      13
     R & G space division:  proc/nbgrp/npool/nimage =     112
     Subspace diagonalization in iterative solution of the eigenvalue problem:
     one sub-group per band group will be used

     Using Slab Decomposition

     bravais-lattice index     =            1
     lattice parameter (alat)  =      20.5686  a.u.
     unit-cell volume          =    8701.8437 (a.u.)^3
     number of atoms/cell      =           63
     number of atomic types    =            3
     number of electrons       =       576.00
     number of Kohn-Sham states=          346
     kinetic-energy cutoff     =     150.0000  Ry
     charge density cutoff     =     600.0000  Ry
     scf convergence threshold =      1.0E-08
     mixing beta               =       0.7000
     number of iterations used =            8  plain     mixing
     Exchange-correlation= SLA  PW   PBX  PBC
                           (   1   4   3   4   0   0   0)
     Hubbard projectors: ortho-atomic
     Hubbard parameters of DFT+U (Dudarev formulation) in eV:
     U(Zn-3d) =  7.0000
     U(Cu-3d) =  5.0000

     Internal variables: lda_plus_u = T, lda_plus_u_kind = 0

     celldm(1)=  20.568554  celldm(2)=   0.000000  celldm(3)=   0.000000
     celldm(4)=   0.000000  celldm(5)=   0.000000  celldm(6)=   0.000000

     crystal axes: (cart. coord. in units of alat)
               a(1) = (   1.000000   0.000000   0.000000 )
               a(2) = (   0.000000   1.000000   0.000000 )
               a(3) = (   0.000000   0.000000   1.000000 )

     reciprocal axes: (cart. coord. in units 2 pi/alat)
               b(1) = (  1.000000  0.000000  0.000000 )
               b(2) = (  0.000000  1.000000  0.000000 )
               b(3) = (  0.000000  0.000000  1.000000 )

     PseudoPot. # 1 for S  read from file:
     /arf/home/amuhaymin/pseudo/S.pbe-n-kjpaw_psl.1.0.0.UPF
     MD5 check sum: fb45dfebcf3e72a4e1bd4a866ec2e262
     Pseudo is Projector augmented-wave + core cor, Zval =  6.0
     Generated using &quot;atomic&quot; code by A. Dal Corso  v.6.3
     Shape of augmentation charge: PSQ
     Using radial grid of 1151 points,  6 beta functions with:
                l(1) =   0
                l(2) =   0
                l(3) =   1
                l(4) =   1
                l(5) =   2
                l(6) =   2
     Q(r) pseudized with 0 coefficients

     PseudoPot. # 2 for Zn read from file:
     /arf/home/amuhaymin/pseudo/Zn.pbe-dnl-kjpaw_psl.1.0.0.UPF
     MD5 check sum: c608214d9520ac179f507641260889e3
     Pseudo is Projector augmented-wave + core cor, Zval = 12.0
     Generated using &quot;atomic&quot; code by A. Dal Corso  v.6.2.2
     Shape of augmentation charge: PSQ
     Using radial grid of 1201 points,  6 beta functions with:
                l(1) =   0
                l(2) =   0
                l(3) =   1
                l(4) =   1
                l(5) =   2
                l(6) =   2
     Q(r) pseudized with 0 coefficients

     PseudoPot. # 3 for Cu read from file:
     /arf/home/amuhaymin/pseudo/Cu.pbe-spn-kjpaw_psl.1.0.0.UPF
     MD5 check sum: e7cbaad2f97193e5fe23251a619a52b0
     Pseudo is Projector augmented-wave + core cor, Zval = 19.0
     Generated using &quot;atomic&quot; code by A. Dal Corso  v.6.3
     Shape of augmentation charge: PSQ
     Using radial grid of 1199 points,  6 beta functions with:
                l(1) =   0
                l(2) =   0
                l(3) =   1
                l(4) =   1
                l(5) =   2
                l(6) =   2
     Q(r) pseudized with 0 coefficients

     atomic species   valence    mass     pseudopotential
        S              6.00    32.06500     S ( 1.00)
        Zn            12.00    65.38000     Zn( 1.00)
        Cu            19.00    63.54600     Cu( 1.00)

     Starting magnetic structure
     atomic species   magnetization
        S            0.000
        Zn           0.000
        Cu           0.000

      6 Sym. Ops. (no inversion) found

                                    s                        frac. trans.

      isym =  1     identity

 cryst.   s( 1) = (     1          0          0      )
                  (     0          1          0      )
                  (     0          0          1      )

 cart.    s( 1) = (  1.0000000  0.0000000  0.0000000 )
                  (  0.0000000  1.0000000  0.0000000 )
                  (  0.0000000  0.0000000  1.0000000 )

      isym =  2     120 deg rotation - cart. axis [-1,-1,-1]

[...]

      isym =  3     120 deg rotation - cart. axis [1,1,1]

[...]

      isym =  4     inv. 180 deg rotation - cart. axis [1,-1,0]

[...]

      isym =  6     inv. 180 deg rotation - cart. axis [0,1,-1]

 cryst.   s( 6) = (     1          0          0      )
                  (     0          0          1      )
                  (     0          1          0      )

 cart.    s( 6) = (  1.0000000  0.0000000  0.0000000 )
                  (  0.0000000  0.0000000  1.0000000 )
                  (  0.0000000  1.0000000  0.0000000 )

     point group C_3v (3m)
     there are  3 classes
     the character table:

       E     2C3   3s_v
A_1    1.00  1.00  1.00
A_2    1.00  1.00 -1.00
E      2.00 -1.00  0.00

     the symmetry operations in each class and the name of the first element:

     E        1
          identity
     2C3      2    3
          120 deg rotation - cart. axis [-1,-1,-1]
     3s_v     4    5    6
          inv. 180 deg rotation - cart. axis [1,-1,0]

   Cartesian axes

     site n.     atom                  positions (alat units)
         1           Zn  tau(   1) = (   0.0000000   0.0000000   0.0000000  )
         2           Zn  tau(   2) = (   0.0000000   0.2500000   0.2500000  )
         3           Zn  tau(   3) = (   0.2500000   0.0000000   0.2500000  )
         4           Zn  tau(   4) = (   0.2500000   0.2500000   0.0000000  )
         5           S   tau(   5) = (   0.1250000   0.3750000   0.3750000  )
         6           S   tau(   6) = (   0.1250000   0.1250000   0.1250000  )
         7           S   tau(   7) = (   0.3750000   0.3750000   0.1250000  )
         8           S   tau(   8) = (   0.3750000   0.1250000   0.3750000  )
         9           Zn  tau(   9) = (   0.0000000   0.0000000   0.5000000  )
        10           Zn  tau(  10) = (   0.0000000   0.2500000   0.7500000  )
        11           Zn  tau(  11) = (   0.2500000   0.0000000   0.7500000  )
        12           Zn  tau(  12) = (   0.2500000   0.2500000   0.5000000  )
        13           S   tau(  13) = (   0.1250000   0.3750000   0.8750000  )
        14           S   tau(  14) = (   0.1250000   0.1250000   0.6250000  )
        15           S   tau(  15) = (   0.3750000   0.3750000   0.6250000  )
        16           S   tau(  16) = (   0.3750000   0.1250000   0.8750000  )
        17           Zn  tau(  17) = (   0.0000000   0.5000000   0.0000000  )
        18           Zn  tau(  18) = (   0.0000000   0.7500000   0.2500000  )
        19           Zn  tau(  19) = (   0.2500000   0.5000000   0.2500000  )
        20           Zn  tau(  20) = (   0.2500000   0.7500000   0.0000000  )
        21           S   tau(  21) = (   0.1250000   0.8750000   0.3750000  )
        22           S   tau(  22) = (   0.1250000   0.6250000   0.1250000  )
        23           S   tau(  23) = (   0.3750000   0.8750000   0.1250000  )
        24           S   tau(  24) = (   0.3750000   0.6250000   0.3750000  )
        25           Zn  tau(  25) = (   0.0000000   0.5000000   0.5000000  )
        26           Zn  tau(  26) = (   0.0000000   0.7500000   0.7500000  )
        27           Zn  tau(  27) = (   0.2500000   0.5000000   0.7500000  )
        28           Zn  tau(  28) = (   0.2500000   0.7500000   0.5000000  )
        29           S   tau(  29) = (   0.1250000   0.8750000   0.8750000  )
        30           S   tau(  30) = (   0.1250000   0.6250000   0.6250000  )
        31           S   tau(  31) = (   0.3750000   0.8750000   0.6250000  )
        32           S   tau(  32) = (   0.3750000   0.6250000   0.8750000  )
        33           Zn  tau(  33) = (   0.5000000   0.0000000   0.0000000  )
        34           Zn  tau(  34) = (   0.5000000   0.2500000   0.2500000  )
        35           Zn  tau(  35) = (   0.7500000   0.0000000   0.2500000  )
        36           Zn  tau(  36) = (   0.7500000   0.2500000   0.0000000  )
        37           S   tau(  37) = (   0.6250000   0.3750000   0.3750000  )
        38           S   tau(  38) = (   0.6250000   0.1250000   0.1250000  )
        39           S   tau(  39) = (   0.8750000   0.3750000   0.1250000  )
        40           S   tau(  40) = (   0.8750000   0.1250000   0.3750000  )
        41           Zn  tau(  41) = (   0.5000000   0.0000000   0.5000000  )
        42           Zn  tau(  42) = (   0.5000000   0.2500000   0.7500000  )
        43           Zn  tau(  43) = (   0.7500000   0.0000000   0.7500000  )
        44           Zn  tau(  44) = (   0.7500000   0.2500000   0.5000000  )
        45           S   tau(  45) = (   0.6250000   0.3750000   0.8750000  )
        46           S   tau(  46) = (   0.6250000   0.1250000   0.6250000  )
        47           S   tau(  47) = (   0.8750000   0.3750000   0.6250000  )
        48           S   tau(  48) = (   0.8750000   0.1250000   0.8750000  )
        49           Zn  tau(  49) = (   0.5000000   0.5000000   0.0000000  )
        50           Zn  tau(  50) = (   0.5000000   0.7500000   0.2500000  )
        51           Zn  tau(  51) = (   0.7500000   0.5000000   0.2500000  )
        52           Zn  tau(  52) = (   0.7500000   0.7500000   0.0000000  )
        53           S   tau(  53) = (   0.6250000   0.8750000   0.3750000  )
        54           S   tau(  54) = (   0.6250000   0.6250000   0.1250000  )
        55           S   tau(  55) = (   0.8750000   0.8750000   0.1250000  )
        56           S   tau(  56) = (   0.8750000   0.6250000   0.3750000  )
        57           Cu  tau(  57) = (   0.5000000   0.5000000   0.5000000  )
        58           Zn  tau(  58) = (   0.5000000   0.7500000   0.7500000  )
        59           Zn  tau(  59) = (   0.7500000   0.5000000   0.7500000  )
        60           Zn  tau(  60) = (   0.7500000   0.7500000   0.5000000  )
        61           S   tau(  61) = (   0.6250000   0.8750000   0.8750000  )
        62           S   tau(  62) = (   0.8750000   0.8750000   0.6250000  )
        63           S   tau(  63) = (   0.8750000   0.6250000   0.8750000  )

   Crystallographic axes

     site n.     atom                  positions (cryst. coord.)
         1           Zn  tau(   1) = (  0.0000000  0.0000000  0.0000000  )
[...]
     atom  29 (R=0.089)  charge=  3.9905  magn= -0.0000
     atom  30 (R=0.089)  charge=  3.9910  magn=  0.0000
     atom  31 (R=0.089)  charge=  3.9830  magn=  0.0000
     atom  32 (R=0.089)  charge=  3.9830  magn=  0.0000
     atom  33 (R=0.089)  charge= 10.1706  magn=  0.0000
     atom  34 (R=0.089)  charge= 10.1690  magn= -0.0000
     atom  35 (R=0.089)  charge= 10.1693  magn=  0.0000
     atom  36 (R=0.089)  charge= 10.1693  magn=  0.0000
     atom  37 (R=0.089)  charge=  3.9717  magn=  0.0000
     atom  38 (R=0.089)  charge=  3.9864  magn= -0.0000
     atom  39 (R=0.089)  charge=  3.9908  magn= -0.0000
     atom  40 (R=0.089)  charge=  3.9908  magn= -0.0000
     atom  41 (R=0.089)  charge= 10.1713  magn= -0.0000
     atom  42 (R=0.089)  charge= 10.1717  magn= -0.0000
     atom  43 (R=0.089)  charge= 10.1722  magn= -0.0000
     atom  44 (R=0.089)  charge= 10.1717  magn= -0.0000
     atom  45 (R=0.089)  charge=  3.9830  magn=  0.0000
     atom  46 (R=0.089)  charge=  3.9910  magn=  0.0000
     atom  47 (R=0.089)  charge=  3.9830  magn=  0.0000
     atom  48 (R=0.089)  charge=  3.9905  magn= -0.0000
     atom  49 (R=0.089)  charge= 10.1713  magn= -0.0000
     atom  50 (R=0.089)  charge= 10.1717  magn= -0.0000
     atom  51 (R=0.089)  charge= 10.1717  magn= -0.0000
     atom  52 (R=0.089)  charge= 10.1722  magn= -0.0000
     atom  53 (R=0.089)  charge=  3.9830  magn=  0.0000
     atom  54 (R=0.089)  charge=  3.9910  magn=  0.0000
     atom  55 (R=0.089)  charge=  3.9905  magn= -0.0000
     atom  56 (R=0.089)  charge=  3.9830  magn=  0.0000
     atom  57 (R=0.089)  charge= 17.4024  magn=  0.0000
     atom  58 (R=0.089)  charge= 10.1326  magn= -0.0000
     atom  59 (R=0.089)  charge= 10.1326  magn= -0.0000
     atom  60 (R=0.089)  charge= 10.1326  magn= -0.0000
     atom  61 (R=0.089)  charge=  3.9826  magn= -0.0000
     atom  62 (R=0.089)  charge=  3.9826  magn= -0.0000
     atom  63 (R=0.089)  charge=  3.9826  magn= -0.0000

     End of self-consistent calculation

 ------ SPIN UP ------------

          k = 0.0000 0.0000 0.0000 (269825 PWs)   bands (ev):

  -104.1881 -61.7037 -61.5561 -61.5561  -7.6083  -7.2869  -7.2869  -7.2554
    -7.1895  -7.1895  -7.1398  -7.1398  -7.1009  -7.0512  -6.9548  -6.9070
    -6.9070  -6.8885  -6.8885  -6.8445  -6.8266  -6.8266  -6.8155  -6.8155
    -6.7955  -6.7598  -6.6984  -6.6984  -6.6561  -6.5980  -6.5980  -6.5974
    -6.4455  -6.3134  -6.3134  -4.4231  -4.3929  -4.3929  -4.3898  -4.3754
    -4.3754  -4.3633  -4.3633  -4.3454  -4.2983  -4.2911  -4.2911  -4.2850
    -4.2850  -4.2782  -3.7695  -3.7695  -3.7548  -3.7422  -3.7300  -3.7300
    -3.7256  -3.7210  -3.7210  -3.7095  -3.7095  -3.7047  -3.7047  -3.7036
    -3.6974  -3.6907  -3.6907  -3.6869  -3.6845  -3.6834  -3.6834  -3.6800
    -3.6773  -3.6773  -3.6696  -3.6559  -3.6559  -3.6422  -3.6422  -3.6383
    -3.6364  -3.6364  -3.6253  -3.6253  -3.6240  -3.6170  -3.6159  -3.6159
    -3.6108  -3.6108  -3.6071  -3.6050  -3.5992  -3.5992  -3.5919  -3.5866
    -3.5866  -3.5831  -3.5831  -3.5803  -3.5759  -3.5613  -3.5608  -3.5552
    -3.5552  -3.5499  -3.5499  -3.5479  -3.5471  -3.5471  -3.5451  -3.5398
    -3.5398  -3.5385  -3.5382  -3.5382  -3.5373  -3.5263  -3.5263  -3.5244
    -3.5213  -3.5213  -3.5082  -3.5082  -3.5046  -3.5012  -3.4865  -3.4859
    -3.4859  -3.4850  -3.4798  -3.4798  -3.4645  -3.4645  -3.4561  -3.4561
    -3.4405  -3.4405  -3.4334  -3.4321  -3.4321  -3.4214  -3.4206  -3.3964
    -3.3964  -3.3907  -3.3885  -3.3885  -3.3740  -3.3740  -3.3699  -3.3694
    -3.3694  -3.3683  -3.3551  -3.3551  -3.3533  -3.3510  -3.3510  -3.3484
    -3.3484  -3.3442  -3.3399  -3.3272  -3.3272  -3.3110  -3.2368  -3.2368
    -3.2264  -3.1866  -3.1751  -3.1751  -3.1527  -3.1527  -3.1313  -3.1313
    -3.1158  -3.0484  -3.0427  -3.0427  -3.0132  -2.9798  -2.9798  -2.9236
    -2.8189  -2.8113  -2.8113  -2.8039  -2.7794  -2.7794   0.2385   0.3217
     0.3443   0.3443   0.6659   0.6659   0.6718   0.7908   0.8801   0.8801
     0.9103   0.9310   0.9310   1.1480   1.2534   1.2534   1.2700   1.2700
     1.3425   1.3426   1.3426   1.3446   1.4233   1.4233   1.8951   2.2708
     2.2708   2.3340   2.4540   2.4540   2.5060   2.5328   2.5328   2.5474
     2.5846   2.5846   2.6733   2.6733   2.7033   2.7272   2.7272   2.7468
     2.7556   2.7556   2.7591   2.8434   2.8443   2.8646   2.8646   2.8668
     2.8668   2.9798   3.0189   3.0326   3.0326   3.1231   3.1231   3.2055
     3.2336   3.3112   3.3112   3.3550   3.3550   3.5506   3.5506   3.6991
     4.0225   4.0342   4.0342   4.0679   4.1090   4.1090   4.1648   4.1648
     4.1741   4.2376   4.2736   4.2736   4.2909   4.3079   4.3079   4.3436
     4.3436   4.3830   4.4723   4.4723   4.4786   4.4862   4.5021   4.5021
     4.5675   4.6548   4.6548   4.9333   4.9333   5.1888   5.4137   5.4137
     5.7582   7.7776   8.0154   8.0154   8.7738   8.7868   8.7868   8.8679
     8.9481   8.9481   9.0456   9.2750   9.5542   9.5737   9.5737   9.9104
     9.9104   9.9803  10.0019  10.0019  10.0570  10.0570  10.0570  10.0918
    10.0996  10.0996  10.2205  10.2205  10.2367  10.2450  10.2615  10.2615
    10.2785  10.2785  10.3232  10.6082  10.6082  10.7266  11.1226  11.1781
    11.1781  11.2250  11.2250  11.3575  11.3941  11.3941  11.4088  11.6704
    11.6999  11.6999  11.8966  11.9002  11.9002  11.9069  12.0882  12.0895
    12.0901  12.1170

     occupation numbers
     1.0000   1.0000   1.0000   1.0000   1.0000   1.0000   1.0000   1.0000
     1.0000   1.0000   1.0000   1.0000   1.0000   1.0000   1.0000   1.0000
     1.0000   1.0000   1.0000   1.0000   1.0000   1.0000   1.0000   1.0000
     1.0000   1.0000   1.0000   1.0000   1.0000   1.0000   1.0000   1.0000
     1.0000   1.0000   1.0000   1.0000   1.0000   1.0000   1.0000   1.0000
     1.0000   1.0000   1.0000   1.0000   1.0000   1.0000   1.0000   1.0000
     1.0000   1.0000   1.0000   1.0000   1.0000   1.0000   1.0000   1.0000
     1.0000   1.0000   1.0000   1.0000   1.0000   1.0000   1.0000   1.0000
     1.0000   1.0000   1.0000   1.0000   1.0000   1.0000   1.0000   1.0000
     1.0000   1.0000   1.0000   1.0000   1.0000   1.0000   1.0000   1.0000
     1.0000   1.0000   1.0000   1.0000   1.0000   1.0000   1.0000   1.0000
     1.0000   1.0000   1.0000   1.0000   1.0000   1.0000   1.0000   1.0000
     1.0000   1.0000   1.0000   1.0000   1.0000   1.0000   1.0000   1.0000
     1.0000   1.0000   1.0000   1.0000   1.0000   1.0000   1.0000   1.0000
     1.0000   1.0000   1.0000   1.0000   1.0000   1.0000   1.0000   1.0000
     1.0000   1.0000   1.0000   1.0000   1.0000   1.0000   1.0000   1.0000
     1.0000   1.0000   1.0000   1.0000   1.0000   1.0000   1.0000   1.0000
     1.0000   1.0000   1.0000   1.0000   1.0000   1.0000   1.0000   1.0000
     1.0000   1.0000   1.0000   1.0000   1.0000   1.0000   1.0000   1.0000
     1.0000   1.0000   1.0000   1.0000   1.0000   1.0000   1.0000   1.0000
     1.0000   1.0000   1.0000   1.0000   1.0000   1.0000   1.0000   1.0000
     1.0000   1.0000   1.0000   1.0000   1.0000   1.0000   1.0000   1.0000
     1.0000   1.0000   1.0000   1.0000   1.0000   1.0000   1.0000   1.0000
     1.0000   1.0000   1.0000   1.0000   1.0000   1.0000   1.0000   1.0000
     1.0000   1.0000   1.0000   1.0000   1.0000   1.0000   1.0000   1.0000
     1.0000   1.0000   1.0000   1.0000   1.0000   1.0000   1.0000   1.0000
     1.0000   1.0000   1.0000   1.0000   1.0000   1.0000   1.0000   1.0000
     1.0000   1.0000   1.0000   1.0000   1.0000   1.0000   1.0000   1.0000
     1.0000   1.0000   1.0000   1.0000   1.0000   1.0000   1.0000   1.0000
     1.0000   1.0000   1.0000   1.0000   1.0000   1.0000   1.0000   1.0000
     1.0000   1.0000   1.0000   1.0000   1.0000   1.0000   1.0000   1.0000
     1.0000   1.0000   1.0000   1.0000   1.0000   1.0000   1.0000   1.0000
     1.0000   1.0000   1.0000   1.0000   1.0000   1.0000   1.0000   1.0000
     1.0000   1.0000   1.0000   1.0000   1.0000   1.0000   1.0000   1.0000
     1.0000   1.0000   1.0000   1.0000   1.0000   1.0000   1.0000   1.0000
     1.0000   1.0000   1.0000   1.0000   1.0000   1.0000   1.0000   1.0000
     0.0000   0.0000   0.0000   0.0000   0.0000   0.0000   0.0000   0.0000
     0.0000   0.0000   0.0000   0.0000   0.0000   0.0000   0.0000   0.0000
     0.0000   0.0000   0.0000   0.0000   0.0000   0.0000   0.0000   0.0000
     0.0000   0.0000   0.0000   0.0000   0.0000   0.0000   0.0000   0.0000
     0.0000   0.0000   0.0000   0.0000   0.0000   0.0000   0.0000   0.0000
     0.0000   0.0000   0.0000   0.0000   0.0000   0.0000   0.0000   0.0000
     0.0000   0.0000   0.0000   0.0000   0.0000   0.0000   0.0000   0.0000
     0.0000   0.0000

[...]

          k =-0.5000-0.5000-0.5000 (269968 PWs)   bands (ev):

[...]

 ------ SPIN DOWN ----------

[...]

          k =-0.2500 0.0000 0.2500 (269929 PWs)   bands (ev):

[...]

          k = 0.2500-0.2500-0.5000 (269988 PWs)   bands (ev):

  -104.1881 -61.7037 -61.5561 -61.5561  -7.4951  -7.4075  -7.3282  -7.2907
    -7.2410  -7.1956  -7.1248  -7.0828  -7.0646  -7.0614  -6.9938  -6.9530
    -6.9337  -6.8818  -6.8489  -6.8321  -6.8156  -6.8060  -6.7776  -6.7684
    -6.7565  -6.7146  -6.6980  -6.6826  -6.6650  -6.6432  -6.6311  -6.6210
    -6.4350  -6.3232  -6.3196  -4.4226  -4.3928  -4.3927  -4.3882  -4.3753
    -4.3752  -4.3633  -4.3630  -4.3459  -4.2987  -4.2909  -4.2906  -4.2843
    -4.2839  -4.2790  -3.7645  -3.7628  -3.7479  -3.7428  -3.7369  -3.7319
    -3.7286  -3.7257  -3.7222  -3.7139  -3.7118  -3.7100  -3.7069  -3.7063
    -3.6986  -3.6951  -3.6907  -3.6871  -3.6847  -3.6796  -3.6755  -3.6709
    -3.6672  -3.6643  -3.6607  -3.6537  -3.6505  -3.6474  -3.6466  -3.6405
    -3.6398  -3.6341  -3.6317  -3.6276  -3.6247  -3.6225  -3.6173  -3.6116
    -3.6106  -3.6069  -3.6033  -3.6020  -3.5993  -3.5962  -3.5924  -3.5887
    -3.5883  -3.5850  -3.5800  -3.5768  -3.5735  -3.5718  -3.5699  -3.5663
    -3.5609  -3.5591  -3.5570  -3.5536  -3.5505  -3.5489  -3.5479  -3.5436
    -3.5387  -3.5345  -3.5329  -3.5289  -3.5263  -3.5251  -3.5215  -3.5188
    -3.5112  -3.5111  -3.5095  -3.5080  -3.5052  -3.5009  -3.4905  -3.4870
    -3.4783  -3.4773  -3.4750  -3.4738  -3.4678  -3.4669  -3.4548  -3.4540
    -3.4485  -3.4455  -3.4423  -3.4387  -3.4347  -3.4261  -3.4090  -3.4003
    -3.3998  -3.3923  -3.3872  -3.3859  -3.3836  -3.3778  -3.3716  -3.3642
    -3.3615  -3.3578  -3.3567  -3.3537  -3.3513  -3.3483  -3.3472  -3.3381
    -3.3371  -3.3346  -3.3323  -3.3316  -3.3292  -3.3158  -3.3080  -3.2735
    -3.2393  -3.2240  -3.1969  -3.1580  -3.1299  -3.1157  -3.0873  -3.0544
    -3.0433  -3.0341  -2.9968  -2.9928  -2.9736  -2.9467  -2.9387  -2.9282
    -2.9037  -2.8851  -2.8745  -2.8601  -2.8389  -2.8350   0.4460   0.5501
     0.6107   0.7124   0.7465   0.7648   0.7853   0.7924   0.8157   0.8312
     0.8428   0.8648   0.8868   0.9150   0.9224   0.9555   0.9855   1.1313
     1.1411   1.2504   1.3203   1.3590   1.3853   1.4235   1.5027   1.8828
     2.1261   2.2523   2.3378   2.3863   2.4156   2.4570   2.4653   2.4826
     2.5538   2.6068   2.6418   2.6566   2.6772   2.7453   2.7557   2.8296
     2.8786   2.9186   2.9519   3.0219   3.1442   3.1654   3.2166   3.2283
     3.2822   3.3240   3.3559   3.3628   3.3908   3.4458   3.4490   3.4726
     3.4952   3.5071   3.5345   3.5405   3.5669   3.5883   3.6078   3.6350
     3.6628   3.7022   3.7220   3.7689   3.7926   3.8237   3.8877   3.9082
     3.9611   3.9981   4.0318   4.0527   4.1006   4.1326   4.1493   4.2087
     4.2534   4.2935   4.3203   4.3441   4.4237   4.5106   4.6081   4.6852
     4.7186   4.7446   4.8024   4.8740   4.8991   4.9271   5.2215   5.3036
     6.0394   7.7793   7.8820   8.7563   8.9513   9.0781   9.1317   9.1786
     9.3863   9.4204   9.4816   9.5252   9.5766   9.6215   9.6446   9.6594
     9.6850   9.7570   9.7903   9.8409   9.8609   9.8913   9.9142   9.9931
    10.0032  10.0306  10.0815  10.1151  10.1416  10.1886  10.2237  10.3223
    10.3942  10.3996  10.4515  10.5955  10.7126  10.7694  10.8184  10.8425
    10.8815  10.9933  11.0523  11.1682  11.2658  11.3338  11.3455  11.4079
    11.4840  11.5317  11.5402  11.5467  11.6198  11.6249  11.6487  11.6724
    11.6845  11.7128

     occupation numbers
     1.0000   1.0000   1.0000   1.0000   1.0000   1.0000   1.0000   1.0000
     1.0000   1.0000   1.0000   1.0000   1.0000   1.0000   1.0000   1.0000
     1.0000   1.0000   1.0000   1.0000   1.0000   1.0000   1.0000   1.0000
     1.0000   1.0000   1.0000   1.0000   1.0000   1.0000   1.0000   1.0000
     1.0000   1.0000   1.0000   1.0000   1.0000   1.0000   1.0000   1.0000
     1.0000   1.0000   1.0000   1.0000   1.0000   1.0000   1.0000   1.0000
     1.0000   1.0000   1.0000   1.0000   1.0000   1.0000   1.0000   1.0000
     1.0000   1.0000   1.0000   1.0000   1.0000   1.0000   1.0000   1.0000
     1.0000   1.0000   1.0000   1.0000   1.0000   1.0000   1.0000   1.0000
     1.0000   1.0000   1.0000   1.0000   1.0000   1.0000   1.0000   1.0000
     1.0000   1.0000   1.0000   1.0000   1.0000   1.0000   1.0000   1.0000
     1.0000   1.0000   1.0000   1.0000   1.0000   1.0000   1.0000   1.0000
     1.0000   1.0000   1.0000   1.0000   1.0000   1.0000   1.0000   1.0000
     1.0000   1.0000   1.0000   1.0000   1.0000   1.0000   1.0000   1.0000
     1.0000   1.0000   1.0000   1.0000   1.0000   1.0000   1.0000   1.0000
     1.0000   1.0000   1.0000   1.0000   1.0000   1.0000   1.0000   1.0000
     1.0000   1.0000   1.0000   1.0000   1.0000   1.0000   1.0000   1.0000
     1.0000   1.0000   1.0000   1.0000   1.0000   1.0000   1.0000   1.0000
     1.0000   1.0000   1.0000   1.0000   1.0000   1.0000   1.0000   1.0000
     1.0000   1.0000   1.0000   1.0000   1.0000   1.0000   1.0000   1.0000
     1.0000   1.0000   1.0000   1.0000   1.0000   1.0000   1.0000   1.0000
     1.0000   1.0000   1.0000   1.0000   1.0000   1.0000   1.0000   1.0000
     1.0000   1.0000   1.0000   1.0000   1.0000   1.0000   1.0000   1.0000
     1.0000   1.0000   1.0000   1.0000   1.0000   1.0000   1.0000   1.0000
     1.0000   1.0000   1.0000   1.0000   1.0000   1.0000   1.0000   1.0000
     1.0000   1.0000   1.0000   1.0000   1.0000   1.0000   1.0000   1.0000
     1.0000   1.0000   1.0000   1.0000   1.0000   1.0000   1.0000   1.0000
     1.0000   1.0000   1.0000   1.0000   1.0000   1.0000   1.0000   1.0000
     1.0000   1.0000   1.0000   1.0000   1.0000   1.0000   1.0000   1.0000
     1.0000   1.0000   1.0000   1.0000   1.0000   1.0000   1.0000   1.0000
     1.0000   1.0000   1.0000   1.0000   1.0000   1.0000   1.0000   1.0000
     1.0000   1.0000   1.0000   1.0000   1.0000   1.0000   1.0000   1.0000
     1.0000   1.0000   1.0000   1.0000   1.0000   1.0000   1.0000   1.0000
     1.0000   1.0000   1.0000   1.0000   1.0000   1.0000   1.0000   1.0000
     1.0000   1.0000   1.0000   1.0000   1.0000   1.0000   1.0000   1.0000
     1.0000   1.0000   1.0000   1.0000   1.0000   1.0000   1.0000   1.0000
     0.0000   0.0000   0.0000   0.0000   0.0000   0.0000   0.0000   0.0000
     0.0000   0.0000   0.0000   0.0000   0.0000   0.0000   0.0000   0.0000
     0.0000   0.0000   0.0000   0.0000   0.0000   0.0000   0.0000   0.0000
     0.0000   0.0000   0.0000   0.0000   0.0000   0.0000   0.0000   0.0000
     0.0000   0.0000   0.0000   0.0000   0.0000   0.0000   0.0000   0.0000
     0.0000   0.0000   0.0000   0.0000   0.0000   0.0000   0.0000   0.0000
     0.0000   0.0000   0.0000   0.0000   0.0000   0.0000   0.0000   0.0000
     0.0000   0.0000

     the Fermi energy is     5.6501 ev

!    total energy              =  -10101.01388090 Ry
     total all-electron energy =   -139419.542929 Ry
     estimated scf accuracy    <          2.8E-09 Ry
     smearing contrib. (-TS)   =      -0.00000000 Ry
     internal energy E=F+TS    =  -10101.01388090 Ry

     The total energy is F=E-TS. E is the sum of the following terms:
     one-electron contribution =   -3090.55549213 Ry
     hartree contribution      =    2121.74373157 Ry
     xc contribution           =   -1660.96999215 Ry
     ewald contribution        =   -2984.70201120 Ry
     Hubbard energy            =       0.27913799 Ry
     one-center paw contrib.   =   -4486.80925498 Ry
      -> PAW hartree energy AE =     123.67325075 Ry
      -> PAW hartree energy PS =    -123.02569016 Ry
      -> PAW xc energy AE      =    -143.25949766 Ry
      -> PAW xc energy PS      =      47.19638276 Ry
      -> total E_H with PAW    =    2122.39129215 Ry
      -> total E_XC with PAW   =   -1757.03310705 Ry

     total magnetization       =     0.00 Bohr mag/cell
     absolute magnetization    =     0.00 Bohr mag/cell

     convergence has been achieved in  14 iterations

     Writing all to output data dir ./out/Cu_vac_qp1_U5_unrlxd.save/

     General routines

     Parallel routines

     Hubbard U routines

     PAW routines

   This run was terminated on:   8:35:32  25Jul2024

   JOB DONE.