     Program PWSCF v.7.2 starts on  5Jul2024 at 14:47:31

     Reading input from 1.Fe_in_ZnS.scf.q0.unrlxd.in

     Current dimensions of program PWSCF are:
     Max number of different atomic species (ntypx) = 10
     Max number of k-points (npk) =  40000
     Max angular momentum in pseudopotentials (lmaxx) =  4
     file S.pbe-n-kjpaw_psl.1.0.0.UPF: wavefunction(s)  3S 3P renormalized
     file Zn.pbe-dnl-kjpaw_psl.1.0.0.UPF: wavefunction(s)  4S 3D renormalized
     file Fe.pbe-spn-kjpaw_psl.1.0.0.UPF: wavefunction(s)  3P 3D renormalized

     K-points division:     npool     =       5
     R & G space division:  proc/nbgrp/npool/nimage =     112
     Subspace diagonalization in iterative solution of the eigenvalue problem:
     one sub-group per band group will be used

     Using Slab Decomposition

     bravais-lattice index     =            1
     lattice parameter (alat)  =      20.5686  a.u.
     unit-cell volume          =    8701.8437 (a.u.)^3
     number of atoms/cell      =           64
     number of atomic types    =            3
     number of electrons       =       580.00
     number of Kohn-Sham states=          348
     kinetic-energy cutoff     =     150.0000  Ry
     charge density cutoff     =     600.0000  Ry
     scf convergence threshold =      1.0E-08
     mixing beta               =       0.7000
     number of iterations used =            8  plain     mixing
     Exchange-correlation= SLA  PW   PBX  PBC
                           (   1   4   3   4   0   0   0)

     celldm(1)=  20.568554  celldm(2)=   0.000000  celldm(3)=   0.000000
     celldm(4)=   0.000000  celldm(5)=   0.000000  celldm(6)=   0.000000

     crystal axes: (cart. coord. in units of alat)
               a(1) = (   1.000000   0.000000   0.000000 )
               a(2) = (   0.000000   1.000000   0.000000 )
               a(3) = (   0.000000   0.000000   1.000000 )

     reciprocal axes: (cart. coord. in units 2 pi/alat)
               b(1) = (  1.000000  0.000000  0.000000 )
               b(2) = (  0.000000  1.000000  0.000000 )
               b(3) = (  0.000000  0.000000  1.000000 )

     PseudoPot. # 1 for S  read from file:
     /arf/home/amuhaymin/pseudo/S.pbe-n-kjpaw_psl.1.0.0.UPF
     MD5 check sum: fb45dfebcf3e72a4e1bd4a866ec2e262
     Pseudo is Projector augmented-wave + core cor, Zval =  6.0
     Generated using &quot;atomic&quot; code by A. Dal Corso  v.6.3
     Shape of augmentation charge: PSQ
     Using radial grid of 1151 points,  6 beta functions with:
                l(1) =   0
                l(2) =   0
                l(3) =   1
                l(4) =   1
                l(5) =   2
                l(6) =   2
     Q(r) pseudized with 0 coefficients

     PseudoPot. # 2 for Zn read from file:
     /arf/home/amuhaymin/pseudo/Zn.pbe-dnl-kjpaw_psl.1.0.0.UPF
     MD5 check sum: c608214d9520ac179f507641260889e3
     Pseudo is Projector augmented-wave + core cor, Zval = 12.0
     Generated using &quot;atomic&quot; code by A. Dal Corso  v.6.2.2
     Shape of augmentation charge: PSQ
     Using radial grid of 1201 points,  6 beta functions with:
                l(1) =   0
                l(2) =   0
                l(3) =   1
                l(4) =   1
                l(5) =   2
                l(6) =   2
     Q(r) pseudized with 0 coefficients

     PseudoPot. # 3 for Fe read from file:
     /arf/home/amuhaymin/pseudo/Fe.pbe-spn-kjpaw_psl.1.0.0.UPF
     MD5 check sum: fc81f059e5c5069939230b1155715ae8
     Pseudo is Projector augmented-wave + core cor, Zval = 16.0
     Generated using &quot;atomic&quot; code by A. Dal Corso  v.6.3
     Shape of augmentation charge: PSQ
     Using radial grid of 1191 points,  6 beta functions with:
                l(1) =   0
                l(2) =   0
                l(3) =   1
                l(4) =   1
                l(5) =   2
                l(6) =   2
     Q(r) pseudized with 0 coefficients

     atomic species   valence    mass     pseudopotential
        S              6.00    32.06500     S ( 1.00)
        Zn            12.00    65.38000     Zn( 1.00)
        Fe            16.00    63.54600     Fe( 1.00)

     Starting magnetic structure
     atomic species   magnetization
        S            0.000
        Zn           0.000
        Fe           0.250

     24 Sym. Ops. (no inversion) found

                                    s                        frac. trans.

      isym =  1     identity

 cryst.   s( 1) = (     1          0          0      )
                  (     0          1          0      )
                  (     0          0          1      )

 cart.    s( 1) = (  1.0000000  0.0000000  0.0000000 )
                  (  0.0000000  1.0000000  0.0000000 )
                  (  0.0000000  0.0000000  1.0000000 )

      isym =  2     180 deg rotation - cart. axis [0,0,1]

[...]

 cryst.   s( 9) = (     0          1          0      )
                  (     0          0          1      )
                  (     1          0          0      )

 cart.    s( 9) = (  0.0000000  0.0000000  1.0000000 )
                  (  1.0000000  0.0000000  0.0000000 )
                  (  0.0000000  1.0000000  0.0000000 )

[...]

 cryst.   s(10) = (     0         -1          0      )
                  (     0          0         -1      )
                  (     1          0          0      )

 cart.    s(10) = (  0.0000000  0.0000000  1.0000000 )
                  ( -1.0000000  0.0000000  0.0000000 )
                  (  0.0000000 -1.0000000  0.0000000 )

[...]

      isym = 12     120 deg rotation - cart. axis [-1,-1,1]

[...]

      isym = 13     inv. 180 deg rotation - cart. axis [1,1,0]

[...]

      isym = 24     inv.  90 deg rotation - cart. axis [1,0,0]

 cryst.   s(24) = (    -1          0          0      )
                  (     0          0         -1      )
                  (     0          1          0      )

 cart.    s(24) = ( -1.0000000  0.0000000  0.0000000 )
                  (  0.0000000  0.0000000  1.0000000 )
                  (  0.0000000 -1.0000000  0.0000000 )

     point group T_d (-43m)
     there are  5 classes
     the character table:

       E     8C3   3C2   6S4   6s_d
A_1    1.00  1.00  1.00  1.00  1.00
A_2    1.00  1.00  1.00 -1.00 -1.00
E      2.00 -1.00  2.00  0.00  0.00
T_1    3.00  0.00 -1.00  1.00 -1.00
T_2    3.00  0.00 -1.00 -1.00  1.00

     the symmetry operations in each class and the name of the first element:

     E        1
          identity
     8C3      5    7    8    6   12    9   10   11
          120 deg rotation - cart. axis [-1,-1,-1]
     3C2      2    3    4
          180 deg rotation - cart. axis [0,0,1]
     6S4     15   16   20   19   23   24
          inv.  90 deg rotation - cart. axis [0,0,-1]
     6s_d    13   14   17   18   21   22
          inv. 180 deg rotation - cart. axis [1,1,0]

   Cartesian axes

     site n.     atom                  positions (alat units)
         1           Zn  tau(   1) = (   0.0000000   0.0000000   0.0000000  )
         2           Zn  tau(   2) = (   0.0000000   0.2500000   0.2500000  )
         3           Zn  tau(   3) = (   0.2500000   0.0000000   0.2500000  )
         4           Zn  tau(   4) = (   0.2500000   0.2500000   0.0000000  )
         5           S   tau(   5) = (   0.1250000   0.3750000   0.3750000  )
         6           S   tau(   6) = (   0.1250000   0.1250000   0.1250000  )
         7           S   tau(   7) = (   0.3750000   0.3750000   0.1250000  )
         8           S   tau(   8) = (   0.3750000   0.1250000   0.3750000  )
         9           Zn  tau(   9) = (   0.0000000   0.0000000   0.5000000  )
        10           Zn  tau(  10) = (   0.0000000   0.2500000   0.7500000  )
        11           Zn  tau(  11) = (   0.2500000   0.0000000   0.7500000  )
        12           Zn  tau(  12) = (   0.2500000   0.2500000   0.5000000  )
        13           S   tau(  13) = (   0.1250000   0.3750000   0.8750000  )
        14           S   tau(  14) = (   0.1250000   0.1250000   0.6250000  )
        15           S   tau(  15) = (   0.3750000   0.3750000   0.6250000  )
        16           S   tau(  16) = (   0.3750000   0.1250000   0.8750000  )
        17           Zn  tau(  17) = (   0.0000000   0.5000000   0.0000000  )
        18           Zn  tau(  18) = (   0.0000000   0.7500000   0.2500000  )
        19           Zn  tau(  19) = (   0.2500000   0.5000000   0.2500000  )
        20           Zn  tau(  20) = (   0.2500000   0.7500000   0.0000000  )
        21           S   tau(  21) = (   0.1250000   0.8750000   0.3750000  )
        22           S   tau(  22) = (   0.1250000   0.6250000   0.1250000  )
        23           S   tau(  23) = (   0.3750000   0.8750000   0.1250000  )
        24           S   tau(  24) = (   0.3750000   0.6250000   0.3750000  )
        25           Zn  tau(  25) = (   0.0000000   0.5000000   0.5000000  )
        26           Zn  tau(  26) = (   0.0000000   0.7500000   0.7500000  )
        27           Zn  tau(  27) = (   0.2500000   0.5000000   0.7500000  )
        28           Zn  tau(  28) = (   0.2500000   0.7500000   0.5000000  )
        29           S   tau(  29) = (   0.1250000   0.8750000   0.8750000  )
        30           S   tau(  30) = (   0.1250000   0.6250000   0.6250000  )
        31           S   tau(  31) = (   0.3750000   0.8750000   0.6250000  )
        32           S   tau(  32) = (   0.3750000   0.6250000   0.8750000  )
        33           Zn  tau(  33) = (   0.5000000   0.0000000   0.0000000  )
        34           Zn  tau(  34) = (   0.5000000   0.2500000   0.2500000  )
        35           Zn  tau(  35) = (   0.7500000   0.0000000   0.2500000  )
        36           Zn  tau(  36) = (   0.7500000   0.2500000   0.0000000  )
        37           S   tau(  37) = (   0.6250000   0.3750000   0.3750000  )
        38           S   tau(  38) = (   0.6250000   0.1250000   0.1250000  )
        39           S   tau(  39) = (   0.8750000   0.3750000   0.1250000  )
        40           S   tau(  40) = (   0.8750000   0.1250000   0.3750000  )
        41           Zn  tau(  41) = (   0.5000000   0.0000000   0.5000000  )
        42           Zn  tau(  42) = (   0.5000000   0.2500000   0.7500000  )
        43           Zn  tau(  43) = (   0.7500000   0.0000000   0.7500000  )
        44           Zn  tau(  44) = (   0.7500000   0.2500000   0.5000000  )
        45           S   tau(  45) = (   0.6250000   0.3750000   0.8750000  )
        46           S   tau(  46) = (   0.6250000   0.1250000   0.6250000  )
        47           S   tau(  47) = (   0.8750000   0.3750000   0.6250000  )
        48           S   tau(  48) = (   0.8750000   0.1250000   0.8750000  )
        49           Zn  tau(  49) = (   0.5000000   0.5000000   0.0000000  )
        50           Zn  tau(  50) = (   0.5000000   0.7500000   0.2500000  )
        51           Zn  tau(  51) = (   0.7500000   0.5000000   0.2500000  )
        52           Zn  tau(  52) = (   0.7500000   0.7500000   0.0000000  )
        53           S   tau(  53) = (   0.6250000   0.8750000   0.3750000  )
        54           S   tau(  54) = (   0.6250000   0.6250000   0.1250000  )
        55           S   tau(  55) = (   0.8750000   0.8750000   0.1250000  )
[...]
     atom  30 (R=0.089)  charge=  3.9933  magn=  0.0006
     atom  31 (R=0.089)  charge=  3.9933  magn=  0.0006
     atom  32 (R=0.089)  charge=  3.9933  magn=  0.0006
     atom  33 (R=0.089)  charge= 10.1600  magn=  0.0012
     atom  34 (R=0.089)  charge= 10.1596  magn=  0.0040
     atom  35 (R=0.089)  charge= 10.1596  magn=  0.0001
     atom  36 (R=0.089)  charge= 10.1596  magn=  0.0001
     atom  37 (R=0.089)  charge=  3.9974  magn=  0.0510
     atom  38 (R=0.089)  charge=  3.9932  magn=  0.0041
     atom  39 (R=0.089)  charge=  3.9932  magn=  0.0041
     atom  40 (R=0.089)  charge=  3.9932  magn=  0.0041
     atom  41 (R=0.089)  charge= 10.1599  magn=  0.0001
     atom  42 (R=0.089)  charge= 10.1596  magn=  0.0040
     atom  43 (R=0.089)  charge= 10.1596  magn=  0.0001
     atom  44 (R=0.089)  charge= 10.1596  magn=  0.0040
     atom  45 (R=0.089)  charge=  3.9933  magn=  0.0006
     atom  46 (R=0.089)  charge=  3.9933  magn=  0.0006
     atom  47 (R=0.089)  charge=  3.9933  magn=  0.0006
     atom  48 (R=0.089)  charge=  3.9935  magn=  0.0004
     atom  49 (R=0.089)  charge= 10.1599  magn=  0.0001
     atom  50 (R=0.089)  charge= 10.1596  magn=  0.0040
     atom  51 (R=0.089)  charge= 10.1596  magn=  0.0040
     atom  52 (R=0.089)  charge= 10.1596  magn=  0.0001
     atom  53 (R=0.089)  charge=  3.9933  magn=  0.0006
     atom  54 (R=0.089)  charge=  3.9933  magn=  0.0006
     atom  55 (R=0.089)  charge=  3.9935  magn=  0.0004
     atom  56 (R=0.089)  charge=  3.9933  magn=  0.0006
     atom  57 (R=0.089)  charge= 13.9791  magn=  3.1837
     atom  58 (R=0.089)  charge= 10.1596  magn=  0.0040
     atom  59 (R=0.089)  charge= 10.1596  magn=  0.0040
     atom  60 (R=0.089)  charge= 10.1596  magn=  0.0040
     atom  61 (R=0.089)  charge=  3.9932  magn=  0.0041
     atom  62 (R=0.089)  charge=  3.9974  magn=  0.0510
     atom  63 (R=0.089)  charge=  3.9932  magn=  0.0041
     atom  64 (R=0.089)  charge=  3.9932  magn=  0.0041

     End of self-consistent calculation

 ------ SPIN UP ------------

          k = 0.0000 0.0000 0.0000 (269825 PWs)   bands (ev):

   -82.4890 -48.5458 -48.5458 -48.5458  -7.4255  -6.8883  -6.8883  -6.8883
    -6.8875  -6.8875  -6.8712  -6.5655  -6.5655  -6.5655  -6.5640  -6.5640
    -6.5639  -6.5639  -6.5639  -6.5637  -6.5637  -6.5637  -6.5509  -6.5396
    -6.5396  -6.5396  -6.5253  -6.2402  -6.2402  -6.2402  -6.2345  -6.2345
    -6.2345  -6.2345  -6.2345  -6.2345  -0.6829  -0.6829  -0.6797  -0.6768
    -0.6768  -0.6768  -0.6492  -0.6482  -0.6482  -0.6357  -0.6357  -0.6357
    -0.5322  -0.5322  -0.5322  -0.5288  -0.5288  -0.5277  -0.5277  -0.5277
    -0.5221  -0.5221  -0.5221  -0.5220  -0.5220  -0.5220  -0.5202  -0.5181
    -0.5181  -0.5153  -0.5153  -0.5153  -0.5104  -0.5085  -0.5085  -0.5085
    -0.5017  -0.5017  -0.5017  -0.5014  -0.5014  -0.5014  -0.5002  -0.5002
    -0.5002  -0.4962  -0.4962  -0.4942  -0.4942  -0.4942  -0.4918  -0.4918
    -0.4918  -0.4904  -0.4903  -0.4903  -0.4903  -0.4745  -0.4745  -0.4155
    -0.4155  -0.4155  -0.3702  -0.3702  -0.3702  -0.3678  -0.3678  -0.3678
    -0.3646  -0.3646  -0.3646  -0.3645  -0.3645  -0.3645  -0.3552  -0.3552
    -0.3368  -0.3255  -0.3255  -0.3255  -0.3121  -0.3121  -0.3121  -0.2261
    -0.2261  -0.2261  -0.2169  -0.2169  -0.2169  -0.2117  -0.2117  -0.2088
    -0.1984  -0.1984  -0.1984  -0.1970  -0.1970  -0.1965  -0.1957  -0.1894
    -0.1894  -0.1785  -0.1785  -0.1785  -0.1755  -0.1755  -0.1755  -0.1751
    -0.1751  -0.1751  -0.1735  -0.1632  -0.1632  -0.1488  -0.1488  -0.1425
    -0.1425  -0.1425  -0.1324  -0.1324  -0.1324  -0.1273  -0.1273  -0.1252
    -0.1252  -0.1252  -0.1245  -0.1173  -0.1173  -0.1173  -0.1098  -0.1098
    -0.1024  -0.1024  -0.1024  -0.1022  -0.1022  -0.1022  -0.0939  -0.0906
    -0.0906  -0.0895  -0.0013  -0.0013  -0.0013   0.0340   0.0427   0.0427
     0.0427   0.1789   0.1789   0.1789   0.2195   0.2195   0.2195   0.4148
     0.4148   0.4148   0.4602   1.0417   1.0417   1.0815   1.0815   1.0815
     1.0952   1.0952   1.1000   1.2632   1.5153   1.5153   1.5153   1.6947
     1.6947   1.6947   1.6961   1.6961   1.7015   1.7015   1.7015   1.9265
     2.5090   2.5090   2.5090   2.6932   2.6932   2.9201   2.9201   2.9201
     2.9320   2.9320   2.9320   2.9464   2.9685   2.9685   2.9685   3.0139
     3.0139   3.0952   3.1009   3.1009   3.1011   3.1011   3.1011   3.1453
     3.1453   3.1453   3.1594   3.1594   3.1594   3.2482   3.3638   3.3638
     3.3638   3.4246   3.4246   3.4246   3.6444   3.6444   3.6444   4.0251
     4.0251   4.3805   4.3805   4.3805   4.3842   4.3842   4.3842   4.3935
     4.3935   4.3935   4.5007   4.5007   4.5007   4.6977   4.6977   4.6977
     4.7037   4.7037   4.7037   4.7043   4.7250   4.7250   4.7250   4.7264
     4.7264   4.7363   4.7363   4.7363   4.9695   4.9695   5.1921   5.1921
     5.1921   5.7375   5.7375   5.7375   7.6071   8.8374   8.8374   8.8374
     8.9253   9.0483   9.0483   9.0483   9.6622   9.6622   9.6870  10.0055
    10.0055  10.0055  10.0203  10.0203  10.0278  10.1410  10.1410  10.1609
    10.1609  10.1609  10.1806  10.3356  10.3356  10.3356  10.3359  10.3359
    10.3359  10.3500  10.3500  10.3709  10.3709  10.3709  10.8142  11.2691
    11.2691  11.2691  11.3071  11.3071  11.3071  11.4941  11.4941  11.4941
    11.5072  11.5072  11.8946  11.9760  11.9761  11.9762  12.2089  12.2089
    12.2090  12.2118  12.2127  12.2136

     occupation numbers
     1.0000   1.0000   1.0000   1.0000   1.0000   1.0000   1.0000   1.0000
     1.0000   1.0000   1.0000   1.0000   1.0000   1.0000   1.0000   1.0000
     1.0000   1.0000   1.0000   1.0000   1.0000   1.0000   1.0000   1.0000
     1.0000   1.0000   1.0000   1.0000   1.0000   1.0000   1.0000   1.0000
     1.0000   1.0000   1.0000   1.0000   1.0000   1.0000   1.0000   1.0000
     1.0000   1.0000   1.0000   1.0000   1.0000   1.0000   1.0000   1.0000
     1.0000   1.0000   1.0000   1.0000   1.0000   1.0000   1.0000   1.0000
     1.0000   1.0000   1.0000   1.0000   1.0000   1.0000   1.0000   1.0000
     1.0000   1.0000   1.0000   1.0000   1.0000   1.0000   1.0000   1.0000
     1.0000   1.0000   1.0000   1.0000   1.0000   1.0000   1.0000   1.0000
     1.0000   1.0000   1.0000   1.0000   1.0000   1.0000   1.0000   1.0000
     1.0000   1.0000   1.0000   1.0000   1.0000   1.0000   1.0000   1.0000
     1.0000   1.0000   1.0000   1.0000   1.0000   1.0000   1.0000   1.0000
     1.0000   1.0000   1.0000   1.0000   1.0000   1.0000   1.0000   1.0000
     1.0000   1.0000   1.0000   1.0000   1.0000   1.0000   1.0000   1.0000
     1.0000   1.0000   1.0000   1.0000   1.0000   1.0000   1.0000   1.0000
     1.0000   1.0000   1.0000   1.0000   1.0000   1.0000   1.0000   1.0000
     1.0000   1.0000   1.0000   1.0000   1.0000   1.0000   1.0000   1.0000
     1.0000   1.0000   1.0000   1.0000   1.0000   1.0000   1.0000   1.0000
     1.0000   1.0000   1.0000   1.0000   1.0000   1.0000   1.0000   1.0000
     1.0000   1.0000   1.0000   1.0000   1.0000   1.0000   1.0000   1.0000
     1.0000   1.0000   1.0000   1.0000   1.0000   1.0000   1.0000   1.0000
     1.0000   1.0000   1.0000   1.0000   1.0000   1.0000   1.0000   1.0000
     1.0000   1.0000   1.0000   1.0000   1.0000   1.0000   1.0000   1.0000
     1.0000   1.0000   1.0000   1.0000   1.0000   1.0000   1.0000   1.0000
     1.0000   1.0000   1.0000   1.0000   1.0000   1.0000   1.0000   1.0000
     1.0000   1.0000   1.0000   1.0000   1.0000   1.0000   1.0000   1.0000
     1.0000   1.0000   1.0000   1.0000   1.0000   1.0000   1.0000   1.0000
     1.0000   1.0000   1.0000   1.0000   1.0000   1.0000   1.0000   1.0000
     1.0000   1.0000   1.0000   1.0000   1.0000   1.0000   1.0000   1.0000
     1.0000   1.0000   1.0000   1.0000   1.0000   1.0000   1.0000   1.0000
     1.0000   1.0000   1.0000   1.0000   1.0000   1.0000   1.0000   1.0000
     1.0000   1.0000   1.0000   1.0000   1.0000   1.0000   1.0000   1.0000
     1.0000   1.0000   1.0000   1.0000   1.0000   1.0000   1.0000   1.0000
     1.0000   1.0000   1.0000   1.0000   1.0000   1.0000   1.0000   1.0000
     1.0000   1.0000   1.0000   1.0000   1.0000   1.0000   1.0000   1.0000
     1.0000   1.0000   1.0000   1.0000   0.0000   0.0000   0.0000   0.0000
     0.0000   0.0000   0.0000   0.0000   0.0000   0.0000   0.0000   0.0000
     0.0000   0.0000   0.0000   0.0000   0.0000   0.0000   0.0000   0.0000
     0.0000   0.0000   0.0000   0.0000   0.0000   0.0000   0.0000   0.0000
     0.0000   0.0000   0.0000   0.0000   0.0000   0.0000   0.0000   0.0000
     0.0000   0.0000   0.0000   0.0000   0.0000   0.0000   0.0000   0.0000
     0.0000   0.0000   0.0000   0.0000   0.0000   0.0000   0.0000   0.0000
     0.0000   0.0000   0.0000   0.0000

[...]

          k =-0.5000-0.5000-0.5000 (269968 PWs)   bands (ev):

[...]

 ------ SPIN DOWN ----------

[...]

          k = 0.2500-0.5000-0.5000 (269956 PWs)   bands (ev):

[...]

          k =-0.5000-0.5000-0.5000 (269968 PWs)   bands (ev):

   -78.8069 -44.9425 -44.9425 -44.9425  -7.0216  -7.0205  -7.0205  -7.0205
    -7.0121  -7.0121  -7.0121  -6.9463  -6.3997  -6.3997  -6.3997  -6.3984
    -6.3984  -6.3984  -6.3984  -6.3984  -6.3983  -6.3981  -6.3981  -6.3981
    -6.3974  -6.3974  -6.3974  -6.3972  -6.3972  -6.3972  -6.3971  -6.3971
    -6.3337  -6.3250  -6.3250  -6.3250  -0.5906  -0.5893  -0.5893  -0.5893
    -0.5863  -0.5863  -0.5863  -0.5835  -0.5761  -0.5761  -0.5761  -0.5759
    -0.5759  -0.5758  -0.5758  -0.5758  -0.5755  -0.5755  -0.5755  -0.5749
    -0.5749  -0.5641  -0.5641  -0.5641  -0.5573  -0.5573  -0.5570  -0.5570
    -0.5570  -0.5570  -0.5570  -0.5570  -0.5569  -0.5565  -0.5565  -0.5565
    -0.5564  -0.5564  -0.5564  -0.5548  -0.5548  -0.5548  -0.5185  -0.5029
    -0.5029  -0.4953  -0.4953  -0.4953  -0.4227  -0.4222  -0.4222  -0.4222
    -0.4220  -0.4220  -0.4220  -0.4218  -0.4218  -0.4218  -0.4218  -0.4218
    -0.4217  -0.4217  -0.4217  -0.4213  -0.4209  -0.4209  -0.4209  -0.4077
    -0.4077  -0.3505  -0.3505  -0.3505  -0.3102  -0.3102  -0.3101  -0.3101
    -0.3101  -0.3098  -0.3098  -0.3098  -0.3097  -0.3097  -0.3097  -0.3096
    -0.3096  -0.3096  -0.3096  -0.3081  -0.3081  -0.3081  -0.2800  -0.2800
    -0.2785  -0.1671  -0.1671  -0.1671  -0.1588  -0.1588  -0.1584  -0.1584
    -0.1584  -0.1581  -0.1581  -0.1581  -0.1577  -0.1577  -0.1577  -0.1404
    -0.1404  -0.1376  -0.1376  -0.1376  -0.1186  -0.1186  -0.1186  -0.1185
    -0.1185  -0.1185  -0.1184  -0.1184  -0.1184  -0.1182  -0.1182  -0.1182
    -0.1182  -0.1175  -0.1175  -0.1175  -0.1168  -0.1168  -0.1168  -0.0738
    -0.0738  -0.0738  -0.0145  -0.0145  -0.0005  -0.0005  -0.0005  -0.0005
    -0.0002  -0.0002   0.0000   0.0000   0.0000   0.0001   0.0001   0.0001
     0.0002   0.0002   0.0002   0.0018   0.0018   0.0018   0.0395   1.1171
     1.1171   1.1171   1.1632   1.1632   1.1949   1.1954   1.1954   1.1954
     1.1958   1.1958   1.1958   1.1962   1.1962   1.1962   1.1962   1.1962
     1.2009   1.2009   1.2009   1.2243   1.2243   1.2243   1.7348   2.6716
     2.6716   2.6716   2.7983   2.8089   2.8089   2.8089   2.9231   3.1099
     3.1099   3.1721   3.1721   3.1721   3.2540   3.2540   3.2540   3.2541
     3.2541   3.2544   3.2544   3.2544   3.2547   3.2548   3.2548   3.2548
     3.2592   3.2592   3.2592   3.3053   3.3053   3.3053   3.4578   3.8921
     3.8921   3.8921   3.9840   3.9840   4.0367   4.0367   4.0367   4.0369
     4.0371   4.0371   4.0371   4.0375   4.0384   4.0384   4.0384   4.0385
     4.0385   4.0482   4.0482   4.0482   4.0628   4.0628   4.0628   4.8582
     4.8582   4.8582   5.0745   5.0745   5.1276   5.1276   5.1282   5.1282
     5.1282   5.1308   5.1308   5.1308   5.1363   5.1363   5.1363   6.7363
     6.7363   7.7316   7.7316   7.7316   8.9755   8.9779   8.9779   8.9779
     8.9952   8.9952   8.9952   9.1663   9.8898   9.8907   9.8907   9.8907
     9.8910   9.8910   9.8910   9.8924   9.8924   9.8940   9.8940   9.8940
     9.8941   9.8941   9.8941   9.9024   9.9024   9.9024  10.0583  10.0583
    10.0865  10.0865  10.0865  10.4539  11.4958  11.4977  11.4977  11.4977
    11.4977  11.4977  11.4977  11.4986  11.4986  11.4986  11.5002  11.5002
    11.5041  11.5041  11.5041  11.5052  11.5052  11.5052  11.5096  11.5096
    11.6776  11.6776  11.6776  12.2197

     occupation numbers
     1.0000   1.0000   1.0000   1.0000   1.0000   1.0000   1.0000   1.0000
     1.0000   1.0000   1.0000   1.0000   1.0000   1.0000   1.0000   1.0000
     1.0000   1.0000   1.0000   1.0000   1.0000   1.0000   1.0000   1.0000
     1.0000   1.0000   1.0000   1.0000   1.0000   1.0000   1.0000   1.0000
     1.0000   1.0000   1.0000   1.0000   1.0000   1.0000   1.0000   1.0000
     1.0000   1.0000   1.0000   1.0000   1.0000   1.0000   1.0000   1.0000
     1.0000   1.0000   1.0000   1.0000   1.0000   1.0000   1.0000   1.0000
     1.0000   1.0000   1.0000   1.0000   1.0000   1.0000   1.0000   1.0000
     1.0000   1.0000   1.0000   1.0000   1.0000   1.0000   1.0000   1.0000
     1.0000   1.0000   1.0000   1.0000   1.0000   1.0000   1.0000   1.0000
     1.0000   1.0000   1.0000   1.0000   1.0000   1.0000   1.0000   1.0000
     1.0000   1.0000   1.0000   1.0000   1.0000   1.0000   1.0000   1.0000
     1.0000   1.0000   1.0000   1.0000   1.0000   1.0000   1.0000   1.0000
     1.0000   1.0000   1.0000   1.0000   1.0000   1.0000   1.0000   1.0000
     1.0000   1.0000   1.0000   1.0000   1.0000   1.0000   1.0000   1.0000
     1.0000   1.0000   1.0000   1.0000   1.0000   1.0000   1.0000   1.0000
     1.0000   1.0000   1.0000   1.0000   1.0000   1.0000   1.0000   1.0000
     1.0000   1.0000   1.0000   1.0000   1.0000   1.0000   1.0000   1.0000
     1.0000   1.0000   1.0000   1.0000   1.0000   1.0000   1.0000   1.0000
     1.0000   1.0000   1.0000   1.0000   1.0000   1.0000   1.0000   1.0000
     1.0000   1.0000   1.0000   1.0000   1.0000   1.0000   1.0000   1.0000
     1.0000   1.0000   1.0000   1.0000   1.0000   1.0000   1.0000   1.0000
     1.0000   1.0000   1.0000   1.0000   1.0000   1.0000   1.0000   1.0000
     1.0000   1.0000   1.0000   1.0000   1.0000   1.0000   1.0000   1.0000
     1.0000   1.0000   1.0000   1.0000   1.0000   1.0000   1.0000   1.0000
     1.0000   1.0000   1.0000   1.0000   1.0000   1.0000   1.0000   1.0000
     1.0000   1.0000   1.0000   1.0000   1.0000   1.0000   1.0000   1.0000
     1.0000   1.0000   1.0000   1.0000   1.0000   1.0000   1.0000   1.0000
     1.0000   1.0000   1.0000   1.0000   1.0000   1.0000   1.0000   1.0000
     1.0000   1.0000   1.0000   1.0000   1.0000   1.0000   1.0000   1.0000
     1.0000   1.0000   1.0000   1.0000   1.0000   1.0000   1.0000   1.0000
     1.0000   1.0000   1.0000   1.0000   1.0000   1.0000   1.0000   1.0000
     1.0000   1.0000   1.0000   1.0000   1.0000   1.0000   1.0000   1.0000
     1.0000   1.0000   1.0000   1.0000   1.0000   1.0000   1.0000   1.0000
     1.0000   1.0000   1.0000   1.0000   1.0000   1.0000   1.0000   1.0000
     1.0000   1.0000   1.0000   1.0000   1.0000   1.0000   1.0000   0.9294
     0.9294   0.0000   0.0000   0.0000   0.0000   0.0000   0.0000   0.0000
     0.0000   0.0000   0.0000   0.0000   0.0000   0.0000   0.0000   0.0000
     0.0000   0.0000   0.0000   0.0000   0.0000   0.0000   0.0000   0.0000
     0.0000   0.0000   0.0000   0.0000   0.0000   0.0000   0.0000   0.0000
     0.0000   0.0000   0.0000   0.0000   0.0000   0.0000   0.0000   0.0000
     0.0000   0.0000   0.0000   0.0000   0.0000   0.0000   0.0000   0.0000
     0.0000   0.0000   0.0000   0.0000   0.0000   0.0000   0.0000   0.0000
     0.0000   0.0000   0.0000   0.0000

     the Fermi energy is     6.7505 ev

!    total energy              =  -10009.81921110 Ry
     total all-electron energy =   -139453.659309 Ry
     estimated scf accuracy    <          5.8E-10 Ry
     smearing contrib. (-TS)   =      -0.00043674 Ry
     internal energy E=F+TS    =  -10009.81877436 Ry

     The total energy is F=E-TS. E is the sum of the following terms:
     one-electron contribution =   -2869.28779982 Ry
     hartree contribution      =    2007.74316865 Ry
     xc contribution           =   -1655.25335221 Ry
     ewald contribution        =   -2975.94713457 Ry
     one-center paw contrib.   =   -4517.07365641 Ry
      -> PAW hartree energy AE =     123.27654997 Ry
      -> PAW hartree energy PS =    -122.63468475 Ry
      -> PAW xc energy AE      =    -143.20934880 Ry
      -> PAW xc energy PS      =      47.14795299 Ry
      -> total E_H with PAW    =    2008.38503387 Ry
      -> total E_XC with PAW   =   -1751.31474802 Ry

     total magnetization       =     4.00 Bohr mag/cell
     absolute magnetization    =     4.03 Bohr mag/cell

     convergence has been achieved in  16 iterations

     Writing all to output data dir ./out/Fe_q0_unrlxd.save/

     General routines

     Parallel routines

     PAW routines

   This run was terminated on:  14:54:14   5Jul2024

   JOB DONE.