     Program PWSCF v.7.2 starts on  1Jul2024 at 11:42:56

     Waiting for input...
     Reading input from standard input

     Current dimensions of program PWSCF are:
     Max number of different atomic species (ntypx) = 10
     Max number of k-points (npk) =  40000
     Max angular momentum in pseudopotentials (lmaxx) =  4
     file S.pbe-n-kjpaw_psl.1.0.0.UPF: wavefunction(s)  3S 3P renormalized
     file Zn.pbe-dnl-kjpaw_psl.1.0.0.UPF: wavefunction(s)  4S 3D renormalized
     Found identity + (  0.0000  0.2500  0.2500) symmetry
     This is a supercell, fractional translations are disabled

     K-points division:     npool     =      10
     R & G space division:  proc/nbgrp/npool/nimage =     112
     Subspace diagonalization in iterative solution of the eigenvalue problem:
     one sub-group per band group will be used

     Using Slab Decomposition

     bravais-lattice index     =            1
     lattice parameter (alat)  =      20.5686  a.u.
     unit-cell volume          =    8701.8437 (a.u.)^3
     number of atoms/cell      =           64
     number of atomic types    =            2
     number of electrons       =       576.00
     number of Kohn-Sham states=          345
     kinetic-energy cutoff     =     105.0000  Ry
     charge density cutoff     =     420.0000  Ry
     scf convergence threshold =      1.0E-06
     mixing beta               =       0.7000
     number of iterations used =            8  plain     mixing
     Exchange-correlation= SLA  PW   PBX  PBC
                           (   1   4   3   4   0   0   0)
     Hubbard projectors: ortho-atomic
     Hubbard parameters of DFT+U (Dudarev formulation) in eV:
     U(Zn-3d) =  8.0000

     Internal variables: lda_plus_u = T, lda_plus_u_kind = 0

     celldm(1)=  20.568554  celldm(2)=   0.000000  celldm(3)=   0.000000
     celldm(4)=   0.000000  celldm(5)=   0.000000  celldm(6)=   0.000000

     crystal axes: (cart. coord. in units of alat)
               a(1) = (   1.000000   0.000000   0.000000 )
               a(2) = (   0.000000   1.000000   0.000000 )
               a(3) = (   0.000000   0.000000   1.000000 )

     reciprocal axes: (cart. coord. in units 2 pi/alat)
               b(1) = (  1.000000  0.000000  0.000000 )
               b(2) = (  0.000000  1.000000  0.000000 )
               b(3) = (  0.000000  0.000000  1.000000 )

     PseudoPot. # 1 for S  read from file:
     /arf/home/amuhaymin/pseudo/S.pbe-n-kjpaw_psl.1.0.0.UPF
     MD5 check sum: fb45dfebcf3e72a4e1bd4a866ec2e262
     Pseudo is Projector augmented-wave + core cor, Zval =  6.0
     Generated using &quot;atomic&quot; code by A. Dal Corso  v.6.3
     Shape of augmentation charge: PSQ
     Using radial grid of 1151 points,  6 beta functions with:
                l(1) =   0
                l(2) =   0
                l(3) =   1
                l(4) =   1
                l(5) =   2
                l(6) =   2
     Q(r) pseudized with 0 coefficients

     PseudoPot. # 2 for Zn read from file:
     /arf/home/amuhaymin/pseudo/Zn.pbe-dnl-kjpaw_psl.1.0.0.UPF
     MD5 check sum: c608214d9520ac179f507641260889e3
     Pseudo is Projector augmented-wave + core cor, Zval = 12.0
     Generated using &quot;atomic&quot; code by A. Dal Corso  v.6.2.2
     Shape of augmentation charge: PSQ
     Using radial grid of 1201 points,  6 beta functions with:
                l(1) =   0
                l(2) =   0
                l(3) =   1
                l(4) =   1
                l(5) =   2
                l(6) =   2
     Q(r) pseudized with 0 coefficients

     atomic species   valence    mass     pseudopotential
        S              6.00    32.06500     S ( 1.00)
        Zn            12.00    65.38000     Zn( 1.00)

     24 Sym. Ops. (no inversion) found

                                    s                        frac. trans.

      isym =  1     identity

 cryst.   s( 1) = (     1          0          0      )
                  (     0          1          0      )
                  (     0          0          1      )

 cart.    s( 1) = (  1.0000000  0.0000000  0.0000000 )
                  (  0.0000000  1.0000000  0.0000000 )
                  (  0.0000000  0.0000000  1.0000000 )

      isym =  2     180 deg rotation - cart. axis [0,0,1]

[...]

 cryst.   s( 9) = (     0          1          0      )
                  (     0          0          1      )
                  (     1          0          0      )

 cart.    s( 9) = (  0.0000000  0.0000000  1.0000000 )
                  (  1.0000000  0.0000000  0.0000000 )
                  (  0.0000000  1.0000000  0.0000000 )

[...]

 cryst.   s(10) = (     0         -1          0      )
                  (     0          0         -1      )
                  (     1          0          0      )

 cart.    s(10) = (  0.0000000  0.0000000  1.0000000 )
                  ( -1.0000000  0.0000000  0.0000000 )
                  (  0.0000000 -1.0000000  0.0000000 )

[...]

      isym = 12     120 deg rotation - cart. axis [-1,-1,1]

[...]

      isym = 13     inv. 180 deg rotation - cart. axis [1,1,0]

[...]

      isym = 24     inv.  90 deg rotation - cart. axis [1,0,0]

 cryst.   s(24) = (    -1          0          0      )
                  (     0          0         -1      )
                  (     0          1          0      )

 cart.    s(24) = ( -1.0000000  0.0000000  0.0000000 )
                  (  0.0000000  0.0000000  1.0000000 )
                  (  0.0000000 -1.0000000  0.0000000 )

     point group T_d (-43m)
     there are  5 classes
     the character table:

       E     8C3   3C2   6S4   6s_d
A_1    1.00  1.00  1.00  1.00  1.00
A_2    1.00  1.00  1.00 -1.00 -1.00
E      2.00 -1.00  2.00  0.00  0.00
T_1    3.00  0.00 -1.00  1.00 -1.00
T_2    3.00  0.00 -1.00 -1.00  1.00

     the symmetry operations in each class and the name of the first element:

     E        1
          identity
     8C3      5    7    8    6   12    9   10   11
          120 deg rotation - cart. axis [-1,-1,-1]
     3C2      2    3    4
          180 deg rotation - cart. axis [0,0,1]
     6S4     15   16   20   19   23   24
          inv.  90 deg rotation - cart. axis [0,0,-1]
     6s_d    13   14   17   18   21   22
          inv. 180 deg rotation - cart. axis [1,1,0]

   Cartesian axes

     site n.     atom                  positions (alat units)
         1           Zn  tau(   1) = (   0.0000000   0.0000000   0.0000000  )
         2           Zn  tau(   2) = (   0.0000000   0.2500000   0.2500000  )
         3           Zn  tau(   3) = (   0.2500000   0.0000000   0.2500000  )
         4           Zn  tau(   4) = (   0.2500000   0.2500000   0.0000000  )
         5           S   tau(   5) = (   0.1250000   0.3750000   0.3750000  )
         6           S   tau(   6) = (   0.1250000   0.1250000   0.1250000  )
         7           S   tau(   7) = (   0.3750000   0.3750000   0.1250000  )
         8           S   tau(   8) = (   0.3750000   0.1250000   0.3750000  )
         9           Zn  tau(   9) = (   0.0000000   0.0000000   0.5000000  )
        10           Zn  tau(  10) = (   0.0000000   0.2500000   0.7500000  )
        11           Zn  tau(  11) = (   0.2500000   0.0000000   0.7500000  )
        12           Zn  tau(  12) = (   0.2500000   0.2500000   0.5000000  )
        13           S   tau(  13) = (   0.1250000   0.3750000   0.8750000  )
        14           S   tau(  14) = (   0.1250000   0.1250000   0.6250000  )
        15           S   tau(  15) = (   0.3750000   0.3750000   0.6250000  )
        16           S   tau(  16) = (   0.3750000   0.1250000   0.8750000  )
        17           Zn  tau(  17) = (   0.0000000   0.5000000   0.0000000  )
        18           Zn  tau(  18) = (   0.0000000   0.7500000   0.2500000  )
        19           Zn  tau(  19) = (   0.2500000   0.5000000   0.2500000  )
        20           Zn  tau(  20) = (   0.2500000   0.7500000   0.0000000  )
        21           S   tau(  21) = (   0.1250000   0.8750000   0.3750000  )
        22           S   tau(  22) = (   0.1250000   0.6250000   0.1250000  )
        23           S   tau(  23) = (   0.3750000   0.8750000   0.1250000  )
        24           S   tau(  24) = (   0.3750000   0.6250000   0.3750000  )
        25           Zn  tau(  25) = (   0.0000000   0.5000000   0.5000000  )
        26           Zn  tau(  26) = (   0.0000000   0.7500000   0.7500000  )
        27           Zn  tau(  27) = (   0.2500000   0.5000000   0.7500000  )
        28           Zn  tau(  28) = (   0.2500000   0.7500000   0.5000000  )
        29           S   tau(  29) = (   0.1250000   0.8750000   0.8750000  )
        30           S   tau(  30) = (   0.1250000   0.6250000   0.6250000  )
        31           S   tau(  31) = (   0.3750000   0.8750000   0.6250000  )
        32           S   tau(  32) = (   0.3750000   0.6250000   0.8750000  )
        33           Zn  tau(  33) = (   0.5000000   0.0000000   0.0000000  )
        34           Zn  tau(  34) = (   0.5000000   0.2500000   0.2500000  )
        35           Zn  tau(  35) = (   0.7500000   0.0000000   0.2500000  )
        36           Zn  tau(  36) = (   0.7500000   0.2500000   0.0000000  )
        37           S   tau(  37) = (   0.6250000   0.3750000   0.3750000  )
        38           S   tau(  38) = (   0.6250000   0.1250000   0.1250000  )
        39           S   tau(  39) = (   0.8750000   0.3750000   0.1250000  )
        40           S   tau(  40) = (   0.8750000   0.1250000   0.3750000  )
        41           Zn  tau(  41) = (   0.5000000   0.0000000   0.5000000  )
        42           Zn  tau(  42) = (   0.5000000   0.2500000   0.7500000  )
        43           Zn  tau(  43) = (   0.7500000   0.0000000   0.7500000  )
        44           Zn  tau(  44) = (   0.7500000   0.2500000   0.5000000  )
        45           S   tau(  45) = (   0.6250000   0.3750000   0.8750000  )
        46           S   tau(  46) = (   0.6250000   0.1250000   0.6250000  )
        47           S   tau(  47) = (   0.8750000   0.3750000   0.6250000  )
        48           S   tau(  48) = (   0.8750000   0.1250000   0.8750000  )
        49           Zn  tau(  49) = (   0.5000000   0.5000000   0.0000000  )
        50           Zn  tau(  50) = (   0.5000000   0.7500000   0.2500000  )
        51           Zn  tau(  51) = (   0.7500000   0.5000000   0.2500000  )
        52           Zn  tau(  52) = (   0.7500000   0.7500000   0.0000000  )
        53           S   tau(  53) = (   0.6250000   0.8750000   0.3750000  )
        54           S   tau(  54) = (   0.6250000   0.6250000   0.1250000  )
        55           S   tau(  55) = (   0.8750000   0.8750000   0.1250000  )
        56           S   tau(  56) = (   0.8750000   0.6250000   0.3750000  )
        57           Zn  tau(  57) = (   0.5000000   0.5000000   0.5000000  )
        58           Zn  tau(  58) = (   0.5000000   0.7500000   0.7500000  )
        59           Zn  tau(  59) = (   0.7500000   0.5000000   0.7500000  )
        60           Zn  tau(  60) = (   0.7500000   0.7500000   0.5000000  )
        61           S   tau(  61) = (   0.6250000   0.8750000   0.8750000  )
        62           S   tau(  62) = (   0.6250000   0.6250000   0.6250000  )
[...]
      -0.000 -0.000  0.000  0.996 -0.091
      -0.716 -0.650 -0.256 -0.000 -0.000
     occupation matrix ns (before diag.):
       0.998 -0.000 -0.000  0.000  0.000
      -0.000  0.996 -0.000  0.000  0.000
      -0.000 -0.000  0.996  0.000  0.000
       0.000  0.000  0.000  0.998 -0.000
       0.000  0.000  0.000 -0.000  0.996
     ------------------------ ATOM   58 ------------------------
     Tr[ns( 58)] =   9.96884
     eigenvalues:
       0.996  0.996  0.996  0.998  0.998
     eigenvectors (columns):
      -0.000 -0.000 -0.000 -0.866 -0.500
       0.337 -0.707  0.622  0.000 -0.000
       0.879 -0.000 -0.477  0.000 -0.000
       0.000 -0.000  0.000 -0.500  0.866
      -0.337 -0.707 -0.622  0.000  0.000
     occupation matrix ns (before diag.):
       0.998 -0.000  0.000 -0.000 -0.000
      -0.000  0.996 -0.000 -0.000 -0.000
       0.000 -0.000  0.996 -0.000  0.000
      -0.000 -0.000 -0.000  0.998  0.000
      -0.000 -0.000  0.000  0.000  0.996
     ------------------------ ATOM   59 ------------------------
     Tr[ns( 59)] =   9.96884
     eigenvalues:
       0.996  0.996  0.996  0.998  0.998
     eigenvectors (columns):
      -0.000 -0.000 -0.000 -0.866 -0.500
       0.879 -0.000 -0.477  0.000 -0.000
       0.337 -0.707  0.622  0.000 -0.000
      -0.000  0.000 -0.000  0.500 -0.866
      -0.337 -0.707 -0.622  0.000  0.000
     occupation matrix ns (before diag.):
       0.998  0.000 -0.000  0.000 -0.000
       0.000  0.996 -0.000  0.000  0.000
      -0.000 -0.000  0.996  0.000 -0.000
       0.000  0.000  0.000  0.998 -0.000
      -0.000  0.000 -0.000 -0.000  0.996
     ------------------------ ATOM   60 ------------------------
     Tr[ns( 60)] =   9.96884
     eigenvalues:
       0.996  0.996  0.996  0.998  0.998
     eigenvectors (columns):
      -0.000 -0.000 -0.000  0.000  1.000
      -0.337 -0.707 -0.622  0.000 -0.000
      -0.337  0.707 -0.622 -0.000 -0.000
       0.000 -0.000  0.000 -1.000  0.000
       0.879  0.000 -0.477  0.000  0.000
     occupation matrix ns (before diag.):
       0.998 -0.000 -0.000  0.000  0.000
      -0.000  0.996  0.000 -0.000  0.000
      -0.000  0.000  0.996  0.000  0.000
       0.000 -0.000  0.000  0.998 -0.000
       0.000  0.000  0.000 -0.000  0.996

     Number of occupied Hubbard levels =  319.0029

     HUBBARD ENERGY =    0.2922  (Ry)

     End of self-consistent calculation

          k = 0.0000 0.0000 0.0000 (158355 PWs)   bands (ev):

    -7.4477  -7.0349  -7.0348  -7.0348  -7.0348  -7.0347  -7.0347  -6.8253
    -6.8253  -6.8253  -6.8253  -6.8229  -6.8229  -6.8229  -6.8229  -6.8227
    -6.8227  -6.8227  -6.8227  -6.8227  -6.8227  -6.8227  -6.8227  -6.6501
    -6.6501  -6.6501  -6.6315  -6.6315  -6.6315  -6.6314  -6.6314  -6.6314
    -4.0879  -4.0879  -4.0879  -4.0271  -4.0271  -4.0271  -4.0271  -4.0271
    -4.0271  -4.0271  -4.0271  -4.0160  -4.0160  -4.0160  -4.0160  -4.0160
    -4.0159  -4.0159  -4.0159  -4.0159  -4.0159  -4.0159  -4.0159  -3.9981
    -3.9981  -3.9981  -3.9941  -3.9941  -3.9941  -3.9941  -3.9941  -3.9941
    -3.9941  -3.9941  -3.9941  -3.9940  -3.9940  -3.9940  -3.9892  -3.9892
    -3.9892  -3.9891  -3.9891  -3.9891  -3.9891  -3.9891  -3.9891  -3.9891
    -3.9891  -3.9891  -3.9685  -3.9685  -3.9685  -3.9685  -3.9685  -3.9685
    -3.9553  -3.9553  -3.9553  -3.9553  -3.9553  -3.9552  -3.9467  -3.9467
    -3.9467  -3.9467  -3.9467  -3.9467  -3.8894  -3.8894  -3.8894  -3.8894
    -3.8894  -3.8894  -3.8701  -3.8701  -3.8701  -3.8701  -3.8701  -3.8701
    -3.8595  -3.8595  -3.8595  -3.8595  -3.8595  -3.8595  -3.8595  -3.8595
    -3.8595  -3.8595  -3.8595  -3.8594  -3.8522  -3.8522  -3.8481  -3.8481
    -3.8481  -3.8481  -3.8481  -3.8481  -3.8481  -3.8481  -3.8481  -3.8481
    -3.8481  -3.8480  -3.8292  -3.8292  -3.8292  -3.8292  -3.8292  -3.8291
    -3.8196  -3.8196  -3.8196  -3.8196  -3.8196  -3.8196  -3.8196  -3.8196
    -3.8173  -3.8173  -3.8173  -3.8173  -3.8173  -3.8172  -3.8166  -3.8166
    -3.8166  -3.8166  -3.8166  -3.8166  -3.7825  -3.7824  -3.7824  -3.4552
    -3.4552  -3.4552  -3.4552  -3.4551  -3.4551  -3.4551  -3.4551  -3.4551
    -3.4551  -3.4551  -3.4551  -3.3550  -3.3550  -3.3550  -3.3550  -3.2059
    -3.2059  -3.2059  -3.0767  -3.0767  -3.0767  -3.0767  -3.0767  -3.0767
     0.3989   0.3989   0.3989   0.3989   0.7691   0.7691   0.7691   1.0070
     1.0070   1.0070   1.0070   1.0071   1.0071   1.4153   1.4154   1.4154
     1.4154   1.4154   1.4154   1.4154   1.4154   1.4154   1.4154   1.4155
     1.4155   2.6850   2.6850   2.6850   2.6850   2.6850   2.6851   2.6891
     2.6892   2.6892   2.6892   2.6892   2.6892   2.8662   2.8662   2.8662
     2.8662   2.8662   2.8662   2.9613   2.9613   2.9613   2.9614   2.9614
     2.9614   2.9614   2.9614   2.9614   2.9614   2.9614   2.9614   3.3189
     3.3189   3.3189   3.3189   3.3189   3.3189   4.1922   4.1922   4.1922
     4.1922   4.1922   4.1922   4.1922   4.1922   4.1922   4.1923   4.1923
     4.1923   4.5095   4.5095   4.5095   4.5095   4.5095   4.5095   4.5095
     4.5095   4.5096   4.5096   4.5096   4.5096   4.5488   4.5488   4.5488
     4.5488   4.5488   4.5488   4.5488   4.5488   5.3310   5.3310   5.3310
     7.5875   8.8213   8.8213   8.8213   8.8213   8.9733   8.9733   8.9733
     9.6156   9.6156   9.6156   9.9909   9.9909   9.9909   9.9909   9.9910
     9.9910  10.1236  10.1236  10.1236  10.1236  10.1236  10.1236  10.3355
    10.3356  10.3356  10.3356  10.3356  10.3356  10.3356  10.3356  10.3356
    10.3356  10.3356  10.3356  11.2167  11.2168  11.2168  11.2168  11.2168
    11.2168  11.4984  11.4984  11.4984  11.4984  11.4984  11.4984  11.9518
    11.9518  12.1874  12.1888  12.1888  12.1888  12.1888  12.1888  12.1888
    12.1889

     occupation numbers
     1.0000   1.0000   1.0000   1.0000   1.0000   1.0000   1.0000   1.0000
     1.0000   1.0000   1.0000   1.0000   1.0000   1.0000   1.0000   1.0000
     1.0000   1.0000   1.0000   1.0000   1.0000   1.0000   1.0000   1.0000
     1.0000   1.0000   1.0000   1.0000   1.0000   1.0000   1.0000   1.0000
     1.0000   1.0000   1.0000   1.0000   1.0000   1.0000   1.0000   1.0000
     1.0000   1.0000   1.0000   1.0000   1.0000   1.0000   1.0000   1.0000
     1.0000   1.0000   1.0000   1.0000   1.0000   1.0000   1.0000   1.0000
     1.0000   1.0000   1.0000   1.0000   1.0000   1.0000   1.0000   1.0000
     1.0000   1.0000   1.0000   1.0000   1.0000   1.0000   1.0000   1.0000
     1.0000   1.0000   1.0000   1.0000   1.0000   1.0000   1.0000   1.0000
     1.0000   1.0000   1.0000   1.0000   1.0000   1.0000   1.0000   1.0000
     1.0000   1.0000   1.0000   1.0000   1.0000   1.0000   1.0000   1.0000
     1.0000   1.0000   1.0000   1.0000   1.0000   1.0000   1.0000   1.0000
     1.0000   1.0000   1.0000   1.0000   1.0000   1.0000   1.0000   1.0000
     1.0000   1.0000   1.0000   1.0000   1.0000   1.0000   1.0000   1.0000
     1.0000   1.0000   1.0000   1.0000   1.0000   1.0000   1.0000   1.0000
     1.0000   1.0000   1.0000   1.0000   1.0000   1.0000   1.0000   1.0000
     1.0000   1.0000   1.0000   1.0000   1.0000   1.0000   1.0000   1.0000
     1.0000   1.0000   1.0000   1.0000   1.0000   1.0000   1.0000   1.0000
     1.0000   1.0000   1.0000   1.0000   1.0000   1.0000   1.0000   1.0000
     1.0000   1.0000   1.0000   1.0000   1.0000   1.0000   1.0000   1.0000
     1.0000   1.0000   1.0000   1.0000   1.0000   1.0000   1.0000   1.0000
     1.0000   1.0000   1.0000   1.0000   1.0000   1.0000   1.0000   1.0000
     1.0000   1.0000   1.0000   1.0000   1.0000   1.0000   1.0000   1.0000
     1.0000   1.0000   1.0000   1.0000   1.0000   1.0000   1.0000   1.0000
     1.0000   1.0000   1.0000   1.0000   1.0000   1.0000   1.0000   1.0000
     1.0000   1.0000   1.0000   1.0000   1.0000   1.0000   1.0000   1.0000
     1.0000   1.0000   1.0000   1.0000   1.0000   1.0000   1.0000   1.0000
     1.0000   1.0000   1.0000   1.0000   1.0000   1.0000   1.0000   1.0000
     1.0000   1.0000   1.0000   1.0000   1.0000   1.0000   1.0000   1.0000
     1.0000   1.0000   1.0000   1.0000   1.0000   1.0000   1.0000   1.0000
     1.0000   1.0000   1.0000   1.0000   1.0000   1.0000   1.0000   1.0000
     1.0000   1.0000   1.0000   1.0000   1.0000   1.0000   1.0000   1.0000
     1.0000   1.0000   1.0000   1.0000   1.0000   1.0000   1.0000   1.0000
     1.0000   1.0000   1.0000   1.0000   1.0000   1.0000   1.0000   1.0000
     1.0000   1.0000   1.0000   1.0000   1.0000   1.0000   1.0000   1.0000
     0.0000   0.0000   0.0000   0.0000   0.0000   0.0000   0.0000   0.0000
     0.0000   0.0000   0.0000   0.0000   0.0000   0.0000   0.0000   0.0000
     0.0000   0.0000   0.0000   0.0000   0.0000   0.0000   0.0000   0.0000
     0.0000   0.0000   0.0000   0.0000   0.0000   0.0000   0.0000   0.0000
     0.0000   0.0000   0.0000   0.0000   0.0000   0.0000   0.0000   0.0000
     0.0000   0.0000   0.0000   0.0000   0.0000   0.0000   0.0000   0.0000
     0.0000   0.0000   0.0000   0.0000   0.0000   0.0000   0.0000   0.0000
     0.0000

[...]

          k = 0.2500-0.5000-0.5000 (158052 PWs)   bands (ev):

[...]

          k =-0.5000-0.5000-0.5000 (158408 PWs)   bands (ev):

    -7.1342  -7.1342  -7.1341  -7.1341  -7.1341  -7.1341  -7.1341  -7.1341
    -6.7290  -6.7290  -6.7290  -6.7289  -6.7289  -6.7289  -6.7288  -6.7288
    -6.7288  -6.7288  -6.7288  -6.7288  -6.7288  -6.7288  -6.7288  -6.7288
    -6.7287  -6.7287  -6.7287  -6.7287  -6.7287  -6.7287  -6.7287  -6.7287
    -4.0475  -4.0475  -4.0475  -4.0475  -4.0475  -4.0475  -4.0475  -4.0475
    -4.0475  -4.0475  -4.0475  -4.0474  -4.0474  -4.0473  -4.0473  -4.0473
    -3.9971  -3.9971  -3.9971  -3.9971  -3.9971  -3.9971  -3.9971  -3.9971
    -3.9971  -3.9971  -3.9971  -3.9971  -3.9971  -3.9971  -3.9970  -3.9970
    -3.9970  -3.9970  -3.9970  -3.9970  -3.9970  -3.9970  -3.9970  -3.9969
    -3.9536  -3.9536  -3.9536  -3.9536  -3.9535  -3.9535  -3.9535  -3.9535
    -3.9535  -3.9535  -3.9535  -3.9535  -3.9535  -3.9535  -3.9535  -3.9535
    -3.9535  -3.9535  -3.9534  -3.9534  -3.9534  -3.9533  -3.9533  -3.9533
    -3.8959  -3.8959  -3.8959  -3.8959  -3.8959  -3.8959  -3.8959  -3.8959
    -3.8959  -3.8959  -3.8959  -3.8958  -3.8958  -3.8958  -3.8958  -3.8958
    -3.8958  -3.8958  -3.8957  -3.8957  -3.8957  -3.8957  -3.8957  -3.8957
    -3.8752  -3.8752  -3.8752  -3.8752  -3.8752  -3.8752  -3.8752  -3.8751
    -3.8471  -3.8471  -3.8470  -3.8470  -3.8470  -3.8470  -3.8470  -3.8470
    -3.8470  -3.8470  -3.8469  -3.8469  -3.8469  -3.8469  -3.8469  -3.8469
    -3.8083  -3.8083  -3.8083  -3.8083  -3.8083  -3.8082  -3.8082  -3.8082
    -3.8082  -3.8082  -3.8082  -3.8082  -3.8082  -3.8082  -3.8082  -3.8082
    -3.8082  -3.8081  -3.8081  -3.8081  -3.8081  -3.8080  -3.8080  -3.8080
    -3.2959  -3.2959  -3.2959  -3.2959  -3.2959  -3.2959  -3.2959  -3.2959
    -3.2959  -3.2959  -3.2959  -3.2959  -3.2958  -3.2958  -3.2958  -3.2958
    -3.2958  -3.2958  -3.2958  -3.2957  -3.2957  -3.2957  -3.2957  -3.2957
     0.9827   0.9828   0.9828   0.9828   0.9828   0.9828   0.9828   0.9828
     0.9828   0.9828   0.9828   0.9828   0.9828   0.9828   0.9828   0.9828
     0.9828   0.9828   0.9829   0.9829   0.9829   0.9829   0.9829   0.9829
     2.4959   2.4959   2.4959   2.4959   2.4959   2.4959   2.4959   2.4959
     3.0616   3.0616   3.0616   3.0616   3.0616   3.0617   3.0617   3.0617
     3.0617   3.0617   3.0617   3.0617   3.0617   3.0617   3.0617   3.0617
     3.0617   3.0617   3.0617   3.0617   3.0617   3.0617   3.0617   3.0617
     3.8774   3.8774   3.8774   3.8774   3.8774   3.8774   3.8774   3.8774
     3.8774   3.8774   3.8774   3.8774   3.8775   3.8775   3.8775   3.8775
     3.8775   3.8775   3.8775   3.8775   3.8775   3.8775   3.8775   3.8775
     4.9047   4.9047   4.9047   4.9047   4.9047   4.9047   4.9048   4.9048
     4.9048   4.9048   4.9048   4.9048   4.9048   4.9048   4.9048   4.9048
     8.9750   8.9751   8.9751   8.9751   8.9751   8.9751   8.9751   8.9751
     9.8657   9.8657   9.8657   9.8657   9.8657   9.8657   9.8657   9.8658
     9.8658   9.8658   9.8658   9.8658   9.8658   9.8658   9.8658   9.8658
     9.8658   9.8658   9.8658   9.8658   9.8658   9.8658   9.8658   9.8658
    11.4771  11.4771  11.4771  11.4771  11.4771  11.4771  11.4771  11.4771
    11.4772  11.4772  11.4772  11.4772  11.4772  11.4772  11.4772  11.4772
    11.4772  11.4772  11.4772  11.4772  11.4772  11.4772  11.4772  11.4772
    12.4229

     occupation numbers
     1.0000   1.0000   1.0000   1.0000   1.0000   1.0000   1.0000   1.0000
     1.0000   1.0000   1.0000   1.0000   1.0000   1.0000   1.0000   1.0000
     1.0000   1.0000   1.0000   1.0000   1.0000   1.0000   1.0000   1.0000
     1.0000   1.0000   1.0000   1.0000   1.0000   1.0000   1.0000   1.0000
     1.0000   1.0000   1.0000   1.0000   1.0000   1.0000   1.0000   1.0000
     1.0000   1.0000   1.0000   1.0000   1.0000   1.0000   1.0000   1.0000
     1.0000   1.0000   1.0000   1.0000   1.0000   1.0000   1.0000   1.0000
     1.0000   1.0000   1.0000   1.0000   1.0000   1.0000   1.0000   1.0000
     1.0000   1.0000   1.0000   1.0000   1.0000   1.0000   1.0000   1.0000
     1.0000   1.0000   1.0000   1.0000   1.0000   1.0000   1.0000   1.0000
     1.0000   1.0000   1.0000   1.0000   1.0000   1.0000   1.0000   1.0000
     1.0000   1.0000   1.0000   1.0000   1.0000   1.0000   1.0000   1.0000
     1.0000   1.0000   1.0000   1.0000   1.0000   1.0000   1.0000   1.0000
     1.0000   1.0000   1.0000   1.0000   1.0000   1.0000   1.0000   1.0000
     1.0000   1.0000   1.0000   1.0000   1.0000   1.0000   1.0000   1.0000
     1.0000   1.0000   1.0000   1.0000   1.0000   1.0000   1.0000   1.0000
     1.0000   1.0000   1.0000   1.0000   1.0000   1.0000   1.0000   1.0000
     1.0000   1.0000   1.0000   1.0000   1.0000   1.0000   1.0000   1.0000
     1.0000   1.0000   1.0000   1.0000   1.0000   1.0000   1.0000   1.0000
     1.0000   1.0000   1.0000   1.0000   1.0000   1.0000   1.0000   1.0000
     1.0000   1.0000   1.0000   1.0000   1.0000   1.0000   1.0000   1.0000
     1.0000   1.0000   1.0000   1.0000   1.0000   1.0000   1.0000   1.0000
     1.0000   1.0000   1.0000   1.0000   1.0000   1.0000   1.0000   1.0000
     1.0000   1.0000   1.0000   1.0000   1.0000   1.0000   1.0000   1.0000
     1.0000   1.0000   1.0000   1.0000   1.0000   1.0000   1.0000   1.0000
     1.0000   1.0000   1.0000   1.0000   1.0000   1.0000   1.0000   1.0000
     1.0000   1.0000   1.0000   1.0000   1.0000   1.0000   1.0000   1.0000
     1.0000   1.0000   1.0000   1.0000   1.0000   1.0000   1.0000   1.0000
     1.0000   1.0000   1.0000   1.0000   1.0000   1.0000   1.0000   1.0000
     1.0000   1.0000   1.0000   1.0000   1.0000   1.0000   1.0000   1.0000
     1.0000   1.0000   1.0000   1.0000   1.0000   1.0000   1.0000   1.0000
     1.0000   1.0000   1.0000   1.0000   1.0000   1.0000   1.0000   1.0000
     1.0000   1.0000   1.0000   1.0000   1.0000   1.0000   1.0000   1.0000
     1.0000   1.0000   1.0000   1.0000   1.0000   1.0000   1.0000   1.0000
     1.0000   1.0000   1.0000   1.0000   1.0000   1.0000   1.0000   1.0000
     1.0000   1.0000   1.0000   1.0000   1.0000   1.0000   1.0000   1.0000
     0.0000   0.0000   0.0000   0.0000   0.0000   0.0000   0.0000   0.0000
     0.0000   0.0000   0.0000   0.0000   0.0000   0.0000   0.0000   0.0000
     0.0000   0.0000   0.0000   0.0000   0.0000   0.0000   0.0000   0.0000
     0.0000   0.0000   0.0000   0.0000   0.0000   0.0000   0.0000   0.0000
     0.0000   0.0000   0.0000   0.0000   0.0000   0.0000   0.0000   0.0000
     0.0000   0.0000   0.0000   0.0000   0.0000   0.0000   0.0000   0.0000
     0.0000   0.0000   0.0000   0.0000   0.0000   0.0000   0.0000   0.0000
     0.0000

     highest occupied, lowest unoccupied level (ev):     5.3310    7.5875

!    total energy              =   -9924.02271460 Ry
     total all-electron energy =   -140499.963303 Ry
     estimated scf accuracy    <       0.00000053 Ry

     The total energy is the sum of the following terms:
     one-electron contribution =   -2760.40293524 Ry
     hartree contribution      =    1969.13996253 Ry
     xc contribution           =   -1676.21966301 Ry
     ewald contribution        =   -2927.19912172 Ry
     Hubbard energy            =       0.29215365 Ry
     one-center paw contrib.   =   -4529.63311081 Ry
      -> PAW hartree energy AE =     123.84008336 Ry
      -> PAW hartree energy PS =    -123.19229119 Ry
      -> PAW xc energy AE      =    -143.27532505 Ry
      -> PAW xc energy PS      =      47.21175974 Ry
      -> total E_H with PAW    =    1969.78775470 Ry
      -> total E_XC with PAW   =   -1772.28322831 Ry

     convergence has been achieved in   9 iterations

     Writing all to output data dir ./out/ZnS_hub.save/

     General routines

     Parallel routines

     Hubbard U routines

     PAW routines

   This run was terminated on:  12: 5:47   1Jul2024

   JOB DONE.