     Program PWSCF v.7.2 starts on 27Jun2024 at 17:30:34

     Waiting for input...
     Reading input from standard input

     Current dimensions of program PWSCF are:
     Max number of different atomic species (ntypx) = 10
     Max number of k-points (npk) =  40000
     Max angular momentum in pseudopotentials (lmaxx) =  4
     file S.pbe-n-kjpaw_psl.1.0.0.UPF: wavefunction(s)  3S 3P renormalized
     file Zn.pbe-dnl-kjpaw_psl.1.0.0.UPF: wavefunction(s)  4S 3D renormalized
     file Co.pbe-spn-kjpaw_psl.0.3.1.UPF: wavefunction(s)  3P 3D renormalized

     K-points division:     npool     =       5
     R & G space division:  proc/nbgrp/npool/nimage =     112
     Subspace diagonalization in iterative solution of the eigenvalue problem:
     one sub-group per band group will be used

     Using Slab Decomposition

     bravais-lattice index     =            1
     lattice parameter (alat)  =      20.5686  a.u.
     unit-cell volume          =    8701.8437 (a.u.)^3
     number of atoms/cell      =           64
     number of atomic types    =            3
     number of electrons       =       581.00
     number of Kohn-Sham states=          349
     kinetic-energy cutoff     =     150.0000  Ry
     charge density cutoff     =     600.0000  Ry
     scf convergence threshold =      1.0E-06
     mixing beta               =       0.7000
     number of iterations used =            8  plain     mixing
     Exchange-correlation= SLA  PW   PBX  PBC
                           (   1   4   3   4   0   0   0)

     celldm(1)=  20.568554  celldm(2)=   0.000000  celldm(3)=   0.000000
     celldm(4)=   0.000000  celldm(5)=   0.000000  celldm(6)=   0.000000

     crystal axes: (cart. coord. in units of alat)
               a(1) = (   1.000000   0.000000   0.000000 )
               a(2) = (   0.000000   1.000000   0.000000 )
               a(3) = (   0.000000   0.000000   1.000000 )

     reciprocal axes: (cart. coord. in units 2 pi/alat)
               b(1) = (  1.000000  0.000000  0.000000 )
               b(2) = (  0.000000  1.000000  0.000000 )
               b(3) = (  0.000000  0.000000  1.000000 )

     PseudoPot. # 1 for S  read from file:
     /arf/home/amuhaymin/pseudo/S.pbe-n-kjpaw_psl.1.0.0.UPF
     MD5 check sum: fb45dfebcf3e72a4e1bd4a866ec2e262
     Pseudo is Projector augmented-wave + core cor, Zval =  6.0
     Generated using &quot;atomic&quot; code by A. Dal Corso  v.6.3
     Shape of augmentation charge: PSQ
     Using radial grid of 1151 points,  6 beta functions with:
                l(1) =   0
                l(2) =   0
                l(3) =   1
                l(4) =   1
                l(5) =   2
                l(6) =   2
     Q(r) pseudized with 0 coefficients

     PseudoPot. # 2 for Zn read from file:
     /arf/home/amuhaymin/pseudo/Zn.pbe-dnl-kjpaw_psl.1.0.0.UPF
     MD5 check sum: c608214d9520ac179f507641260889e3
     Pseudo is Projector augmented-wave + core cor, Zval = 12.0
     Generated using &quot;atomic&quot; code by A. Dal Corso  v.6.2.2
     Shape of augmentation charge: PSQ
     Using radial grid of 1201 points,  6 beta functions with:
                l(1) =   0
                l(2) =   0
                l(3) =   1
                l(4) =   1
                l(5) =   2
                l(6) =   2
     Q(r) pseudized with 0 coefficients

     PseudoPot. # 3 for Co read from file:
     /arf/home/amuhaymin/pseudo/Co.pbe-spn-kjpaw_psl.0.3.1.UPF
     MD5 check sum: b0a1ad65bf214e88c1f3d33b20c7d919
     Pseudo is Projector augmented-wave + core cor, Zval = 17.0
     Generated using &quot;atomic&quot; code by A. Dal Corso  v.6.2.2
     Shape of augmentation charge: PSQ
     Using radial grid of 1193 points,  6 beta functions with:
                l(1) =   0
                l(2) =   0
                l(3) =   1
                l(4) =   1
                l(5) =   2
                l(6) =   2
     Q(r) pseudized with 0 coefficients

     atomic species   valence    mass     pseudopotential
        S              6.00    32.06500     S ( 1.00)
        Zn            12.00    65.38000     Zn( 1.00)
        Co            17.00    63.54600     Co( 1.00)

     Starting magnetic structure
     atomic species   magnetization
        S            0.000
        Zn           0.000
        Co           0.053

     24 Sym. Ops. (no inversion) found

                                    s                        frac. trans.

      isym =  1     identity

 cryst.   s( 1) = (     1          0          0      )
                  (     0          1          0      )
                  (     0          0          1      )

 cart.    s( 1) = (  1.0000000  0.0000000  0.0000000 )
                  (  0.0000000  1.0000000  0.0000000 )
                  (  0.0000000  0.0000000  1.0000000 )

      isym =  2     180 deg rotation - cart. axis [0,0,1]

[...]

 cryst.   s( 9) = (     0          1          0      )
                  (     0          0          1      )
                  (     1          0          0      )

 cart.    s( 9) = (  0.0000000  0.0000000  1.0000000 )
                  (  1.0000000  0.0000000  0.0000000 )
                  (  0.0000000  1.0000000  0.0000000 )

[...]

 cryst.   s(10) = (     0         -1          0      )
                  (     0          0         -1      )
                  (     1          0          0      )

 cart.    s(10) = (  0.0000000  0.0000000  1.0000000 )
                  ( -1.0000000  0.0000000  0.0000000 )
                  (  0.0000000 -1.0000000  0.0000000 )

[...]

      isym = 12     120 deg rotation - cart. axis [-1,-1,1]

[...]

      isym = 13     inv. 180 deg rotation - cart. axis [1,1,0]

[...]

      isym = 24     inv.  90 deg rotation - cart. axis [1,0,0]

 cryst.   s(24) = (    -1          0          0      )
                  (     0          0         -1      )
                  (     0          1          0      )

 cart.    s(24) = ( -1.0000000  0.0000000  0.0000000 )
                  (  0.0000000  0.0000000  1.0000000 )
                  (  0.0000000 -1.0000000  0.0000000 )

     point group T_d (-43m)
     there are  5 classes
     the character table:

       E     8C3   3C2   6S4   6s_d
A_1    1.00  1.00  1.00  1.00  1.00
A_2    1.00  1.00  1.00 -1.00 -1.00
E      2.00 -1.00  2.00  0.00  0.00
T_1    3.00  0.00 -1.00  1.00 -1.00
T_2    3.00  0.00 -1.00 -1.00  1.00

     the symmetry operations in each class and the name of the first element:

     E        1
          identity
     8C3      5    7    8    6   12    9   10   11
          120 deg rotation - cart. axis [-1,-1,-1]
     3C2      2    3    4
          180 deg rotation - cart. axis [0,0,1]
     6S4     15   16   20   19   23   24
          inv.  90 deg rotation - cart. axis [0,0,-1]
     6s_d    13   14   17   18   21   22
          inv. 180 deg rotation - cart. axis [1,1,0]

   Cartesian axes

     site n.     atom                  positions (alat units)
         1           Zn  tau(   1) = (   0.0000000   0.0000000   0.0000000  )
         2           Zn  tau(   2) = (   0.0000000   0.2500000   0.2500000  )
         3           Zn  tau(   3) = (   0.2500000   0.0000000   0.2500000  )
         4           Zn  tau(   4) = (   0.2500000   0.2500000   0.0000000  )
         5           S   tau(   5) = (   0.1250000   0.3750000   0.3750000  )
         6           S   tau(   6) = (   0.1250000   0.1250000   0.1250000  )
         7           S   tau(   7) = (   0.3750000   0.3750000   0.1250000  )
         8           S   tau(   8) = (   0.3750000   0.1250000   0.3750000  )
         9           Zn  tau(   9) = (   0.0000000   0.0000000   0.5000000  )
        10           Zn  tau(  10) = (   0.0000000   0.2500000   0.7500000  )
        11           Zn  tau(  11) = (   0.2500000   0.0000000   0.7500000  )
        12           Zn  tau(  12) = (   0.2500000   0.2500000   0.5000000  )
        13           S   tau(  13) = (   0.1250000   0.3750000   0.8750000  )
        14           S   tau(  14) = (   0.1250000   0.1250000   0.6250000  )
        15           S   tau(  15) = (   0.3750000   0.3750000   0.6250000  )
        16           S   tau(  16) = (   0.3750000   0.1250000   0.8750000  )
        17           Zn  tau(  17) = (   0.0000000   0.5000000   0.0000000  )
        18           Zn  tau(  18) = (   0.0000000   0.7500000   0.2500000  )
        19           Zn  tau(  19) = (   0.2500000   0.5000000   0.2500000  )
        20           Zn  tau(  20) = (   0.2500000   0.7500000   0.0000000  )
        21           S   tau(  21) = (   0.1250000   0.8750000   0.3750000  )
        22           S   tau(  22) = (   0.1250000   0.6250000   0.1250000  )
        23           S   tau(  23) = (   0.3750000   0.8750000   0.1250000  )
        24           S   tau(  24) = (   0.3750000   0.6250000   0.3750000  )
        25           Zn  tau(  25) = (   0.0000000   0.5000000   0.5000000  )
        26           Zn  tau(  26) = (   0.0000000   0.7500000   0.7500000  )
        27           Zn  tau(  27) = (   0.2500000   0.5000000   0.7500000  )
        28           Zn  tau(  28) = (   0.2500000   0.7500000   0.5000000  )
        29           S   tau(  29) = (   0.1250000   0.8750000   0.8750000  )
        30           S   tau(  30) = (   0.1250000   0.6250000   0.6250000  )
        31           S   tau(  31) = (   0.3750000   0.8750000   0.6250000  )
        32           S   tau(  32) = (   0.3750000   0.6250000   0.8750000  )
        33           Zn  tau(  33) = (   0.5000000   0.0000000   0.0000000  )
        34           Zn  tau(  34) = (   0.5000000   0.2500000   0.2500000  )
        35           Zn  tau(  35) = (   0.7500000   0.0000000   0.2500000  )
        36           Zn  tau(  36) = (   0.7500000   0.2500000   0.0000000  )
        37           S   tau(  37) = (   0.6250000   0.3750000   0.3750000  )
        38           S   tau(  38) = (   0.6250000   0.1250000   0.1250000  )
        39           S   tau(  39) = (   0.8750000   0.3750000   0.1250000  )
        40           S   tau(  40) = (   0.8750000   0.1250000   0.3750000  )
        41           Zn  tau(  41) = (   0.5000000   0.0000000   0.5000000  )
        42           Zn  tau(  42) = (   0.5000000   0.2500000   0.7500000  )
        43           Zn  tau(  43) = (   0.7500000   0.0000000   0.7500000  )
        44           Zn  tau(  44) = (   0.7500000   0.2500000   0.5000000  )
        45           S   tau(  45) = (   0.6250000   0.3750000   0.8750000  )
        46           S   tau(  46) = (   0.6250000   0.1250000   0.6250000  )
        47           S   tau(  47) = (   0.8750000   0.3750000   0.6250000  )
        48           S   tau(  48) = (   0.8750000   0.1250000   0.8750000  )
        49           Zn  tau(  49) = (   0.5000000   0.5000000   0.0000000  )
        50           Zn  tau(  50) = (   0.5000000   0.7500000   0.2500000  )
        51           Zn  tau(  51) = (   0.7500000   0.5000000   0.2500000  )
        52           Zn  tau(  52) = (   0.7500000   0.7500000   0.0000000  )
        53           S   tau(  53) = (   0.6250000   0.8750000   0.3750000  )
        54           S   tau(  54) = (   0.6250000   0.6250000   0.1250000  )
        55           S   tau(  55) = (   0.8750000   0.8750000   0.1250000  )
[...]
     atom  30 (R=0.089)  charge=  3.9933  magn=  0.0002
     atom  31 (R=0.089)  charge=  3.9933  magn=  0.0002
     atom  32 (R=0.089)  charge=  3.9933  magn=  0.0002
     atom  33 (R=0.089)  charge= 10.1598  magn=  0.0013
     atom  34 (R=0.089)  charge= 10.1597  magn=  0.0032
     atom  35 (R=0.089)  charge= 10.1596  magn=  0.0001
     atom  36 (R=0.089)  charge= 10.1596  magn=  0.0001
     atom  37 (R=0.089)  charge=  3.9870  magn=  0.0628
     atom  38 (R=0.089)  charge=  3.9931  magn=  0.0046
     atom  39 (R=0.089)  charge=  3.9931  magn=  0.0046
     atom  40 (R=0.089)  charge=  3.9931  magn=  0.0046
     atom  41 (R=0.089)  charge= 10.1598  magn=  0.0001
     atom  42 (R=0.089)  charge= 10.1597  magn=  0.0032
     atom  43 (R=0.089)  charge= 10.1596  magn=  0.0001
     atom  44 (R=0.089)  charge= 10.1597  magn=  0.0032
     atom  45 (R=0.089)  charge=  3.9933  magn=  0.0002
     atom  46 (R=0.089)  charge=  3.9933  magn=  0.0002
     atom  47 (R=0.089)  charge=  3.9933  magn=  0.0002
     atom  48 (R=0.089)  charge=  3.9935  magn=  0.0007
     atom  49 (R=0.089)  charge= 10.1598  magn=  0.0001
     atom  50 (R=0.089)  charge= 10.1597  magn=  0.0032
     atom  51 (R=0.089)  charge= 10.1597  magn=  0.0032
     atom  52 (R=0.089)  charge= 10.1596  magn=  0.0001
     atom  53 (R=0.089)  charge=  3.9933  magn=  0.0002
     atom  54 (R=0.089)  charge=  3.9933  magn=  0.0002
     atom  55 (R=0.089)  charge=  3.9935  magn=  0.0007
     atom  56 (R=0.089)  charge=  3.9933  magn=  0.0002
     atom  57 (R=0.089)  charge= 15.0995  magn=  2.2722
     atom  58 (R=0.089)  charge= 10.1597  magn=  0.0032
     atom  59 (R=0.089)  charge= 10.1597  magn=  0.0032
     atom  60 (R=0.089)  charge= 10.1597  magn=  0.0032
     atom  61 (R=0.089)  charge=  3.9931  magn=  0.0046
     atom  62 (R=0.089)  charge=  3.9870  magn=  0.0628
     atom  63 (R=0.089)  charge=  3.9931  magn=  0.0046
     atom  64 (R=0.089)  charge=  3.9931  magn=  0.0046

     End of self-consistent calculation

 ------ SPIN UP ------------

          k = 0.0000 0.0000 0.0000 (269825 PWs)   bands (ev):

   -90.2033 -53.4715 -53.4715 -53.4715  -7.4344  -6.8975  -6.8975  -6.8975
    -6.8967  -6.8967  -6.8794  -6.5751  -6.5751  -6.5751  -6.5731  -6.5731
    -6.5731  -6.5729  -6.5729  -6.5726  -6.5726  -6.5726  -6.5632  -6.5479
    -6.5479  -6.5479  -6.5309  -6.2510  -6.2510  -6.2510  -6.2435  -6.2435
    -6.2435  -6.2418  -6.2418  -6.2418  -0.6918  -0.6918  -0.6888  -0.6858
    -0.6858  -0.6858  -0.6579  -0.6557  -0.6557  -0.6436  -0.6436  -0.6436
    -0.5403  -0.5403  -0.5403  -0.5388  -0.5388  -0.5383  -0.5383  -0.5383
    -0.5308  -0.5308  -0.5308  -0.5307  -0.5307  -0.5307  -0.5289  -0.5272
    -0.5272  -0.5242  -0.5242  -0.5242  -0.5192  -0.5176  -0.5176  -0.5176
    -0.5103  -0.5103  -0.5103  -0.5100  -0.5100  -0.5100  -0.5094  -0.5094
    -0.5094  -0.5043  -0.5043  -0.5024  -0.5024  -0.5024  -0.4997  -0.4997
    -0.4997  -0.4987  -0.4981  -0.4981  -0.4981  -0.4787  -0.4787  -0.4233
    -0.4233  -0.4233  -0.3789  -0.3789  -0.3789  -0.3754  -0.3754  -0.3754
    -0.3727  -0.3727  -0.3727  -0.3726  -0.3726  -0.3726  -0.3633  -0.3633
    -0.3445  -0.3344  -0.3344  -0.3344  -0.3206  -0.3206  -0.3206  -0.2350
    -0.2350  -0.2350  -0.2250  -0.2250  -0.2250  -0.2210  -0.2210  -0.2184
    -0.2066  -0.2066  -0.2066  -0.2059  -0.2059  -0.2057  -0.2048  -0.1997
    -0.1997  -0.1880  -0.1880  -0.1880  -0.1837  -0.1837  -0.1837  -0.1835
    -0.1835  -0.1835  -0.1821  -0.1721  -0.1721  -0.1566  -0.1566  -0.1493
    -0.1493  -0.1493  -0.1405  -0.1405  -0.1405  -0.1355  -0.1355  -0.1339
    -0.1339  -0.1339  -0.1326  -0.1269  -0.1269  -0.1269  -0.1205  -0.1205
    -0.1107  -0.1107  -0.1107  -0.1106  -0.1106  -0.1106  -0.1020  -0.0990
    -0.0990  -0.0975  -0.0101  -0.0101  -0.0101   0.0258   0.0351   0.0351
     0.0351   0.1702   0.1702   0.1702   0.2109   0.2109   0.2109   0.4080
     0.4080   0.4080   0.4504   1.0408   1.0408   1.0740   1.0740   1.0740
     1.0854   1.0854   1.0882   1.2521   1.5072   1.5072   1.5072   1.6869
     1.6869   1.6869   1.6871   1.6871   1.6941   1.6941   1.6941   1.9063
     2.4518   2.4518   2.4518   2.7459   2.7459   2.9119   2.9119   2.9119
     2.9242   2.9242   2.9242   2.9378   2.9600   2.9600   2.9600   3.0064
     3.0064   3.0881   3.0920   3.0920   3.0920   3.0953   3.0953   3.1374
     3.1374   3.1374   3.1521   3.1521   3.1521   3.2277   3.3363   3.3363
     3.3363   3.4174   3.4174   3.4174   3.5833   3.5833   3.5833   4.1406
     4.1406   4.3728   4.3728   4.3728   4.3750   4.3750   4.3750   4.3850
     4.3850   4.3850   4.4809   4.4809   4.4809   4.6905   4.6905   4.6905
     4.6945   4.6945   4.6945   4.6956   4.7129   4.7129   4.7129   4.7154
     4.7154   4.7282   4.7282   4.7282   4.9961   4.9961   5.0832   5.0832
     5.0832   5.6648   5.6648   5.6648   7.5999   8.8302   8.8302   8.8302
     8.9099   9.0382   9.0382   9.0382   9.6537   9.6537   9.6733   9.9982
     9.9982   9.9982  10.0105  10.0105  10.0291  10.1340  10.1340  10.1522
    10.1523  10.1523  10.1725  10.3282  10.3282  10.3282  10.3287  10.3287
    10.3287  10.3397  10.3397  10.3603  10.3603  10.3603  10.7675  11.2611
    11.2611  11.2613  11.2967  11.2968  11.2968  11.4868  11.4868  11.4868
    11.4977  11.4978  11.8369  11.9677  11.9679  11.9679  12.2027  12.2046
    12.2052  12.2092  12.2243  12.2262  12.2265

     occupation numbers
     1.0000   1.0000   1.0000   1.0000   1.0000   1.0000   1.0000   1.0000
     1.0000   1.0000   1.0000   1.0000   1.0000   1.0000   1.0000   1.0000
     1.0000   1.0000   1.0000   1.0000   1.0000   1.0000   1.0000   1.0000
     1.0000   1.0000   1.0000   1.0000   1.0000   1.0000   1.0000   1.0000
     1.0000   1.0000   1.0000   1.0000   1.0000   1.0000   1.0000   1.0000
     1.0000   1.0000   1.0000   1.0000   1.0000   1.0000   1.0000   1.0000
     1.0000   1.0000   1.0000   1.0000   1.0000   1.0000   1.0000   1.0000
     1.0000   1.0000   1.0000   1.0000   1.0000   1.0000   1.0000   1.0000
     1.0000   1.0000   1.0000   1.0000   1.0000   1.0000   1.0000   1.0000
     1.0000   1.0000   1.0000   1.0000   1.0000   1.0000   1.0000   1.0000
     1.0000   1.0000   1.0000   1.0000   1.0000   1.0000   1.0000   1.0000
     1.0000   1.0000   1.0000   1.0000   1.0000   1.0000   1.0000   1.0000
     1.0000   1.0000   1.0000   1.0000   1.0000   1.0000   1.0000   1.0000
     1.0000   1.0000   1.0000   1.0000   1.0000   1.0000   1.0000   1.0000
     1.0000   1.0000   1.0000   1.0000   1.0000   1.0000   1.0000   1.0000
     1.0000   1.0000   1.0000   1.0000   1.0000   1.0000   1.0000   1.0000
     1.0000   1.0000   1.0000   1.0000   1.0000   1.0000   1.0000   1.0000
     1.0000   1.0000   1.0000   1.0000   1.0000   1.0000   1.0000   1.0000
     1.0000   1.0000   1.0000   1.0000   1.0000   1.0000   1.0000   1.0000
     1.0000   1.0000   1.0000   1.0000   1.0000   1.0000   1.0000   1.0000
     1.0000   1.0000   1.0000   1.0000   1.0000   1.0000   1.0000   1.0000
     1.0000   1.0000   1.0000   1.0000   1.0000   1.0000   1.0000   1.0000
     1.0000   1.0000   1.0000   1.0000   1.0000   1.0000   1.0000   1.0000
     1.0000   1.0000   1.0000   1.0000   1.0000   1.0000   1.0000   1.0000
     1.0000   1.0000   1.0000   1.0000   1.0000   1.0000   1.0000   1.0000
     1.0000   1.0000   1.0000   1.0000   1.0000   1.0000   1.0000   1.0000
     1.0000   1.0000   1.0000   1.0000   1.0000   1.0000   1.0000   1.0000
     1.0000   1.0000   1.0000   1.0000   1.0000   1.0000   1.0000   1.0000
     1.0000   1.0000   1.0000   1.0000   1.0000   1.0000   1.0000   1.0000
     1.0000   1.0000   1.0000   1.0000   1.0000   1.0000   1.0000   1.0000
     1.0000   1.0000   1.0000   1.0000   1.0000   1.0000   1.0000   1.0000
     1.0000   1.0000   1.0000   1.0000   1.0000   1.0000   1.0000   1.0000
     1.0000   1.0000   1.0000   1.0000   1.0000   1.0000   1.0000   1.0000
     1.0000   1.0000   1.0000   1.0000   1.0000   1.0000   1.0000   1.0000
     1.0000   1.0000   1.0000   1.0000   1.0000   1.0000   1.0000   1.0000
     1.0000   1.0000   1.0000   1.0000   1.0000   1.0000   1.0000   1.0000
     1.0000   1.0000   1.0000   1.0000   0.0000   0.0000   0.0000   0.0000
     0.0000   0.0000   0.0000   0.0000   0.0000   0.0000   0.0000   0.0000
     0.0000   0.0000   0.0000   0.0000   0.0000   0.0000   0.0000   0.0000
     0.0000   0.0000   0.0000   0.0000   0.0000   0.0000   0.0000   0.0000
     0.0000   0.0000   0.0000   0.0000   0.0000   0.0000   0.0000   0.0000
     0.0000   0.0000   0.0000   0.0000   0.0000   0.0000   0.0000   0.0000
     0.0000   0.0000   0.0000   0.0000   0.0000   0.0000   0.0000   0.0000
     0.0000   0.0000   0.0000   0.0000   0.0000

[...]

          k =-0.5000-0.5000-0.5000 (269968 PWs)   bands (ev):

[...]

 ------ SPIN DOWN ----------

[...]

          k = 0.2500-0.5000-0.5000 (269956 PWs)   bands (ev):

[...]

          k =-0.5000-0.5000-0.5000 (269968 PWs)   bands (ev):

   -87.4588 -50.7931 -50.7931 -50.7931  -7.0340  -7.0310  -7.0310  -7.0310
    -7.0190  -7.0190  -7.0190  -6.9487  -6.4121  -6.4121  -6.4121  -6.4106
    -6.4106  -6.4106  -6.4106  -6.4106  -6.4104  -6.4089  -6.4089  -6.4089
    -6.4044  -6.4044  -6.4044  -6.4031  -6.4031  -6.4031  -6.4029  -6.4029
    -6.3368  -6.3214  -6.3214  -6.3214  -0.6011  -0.5986  -0.5986  -0.5986
    -0.5965  -0.5965  -0.5965  -0.5899  -0.5869  -0.5869  -0.5869  -0.5864
    -0.5864  -0.5852  -0.5852  -0.5852  -0.5825  -0.5825  -0.5825  -0.5822
    -0.5822  -0.5723  -0.5723  -0.5723  -0.5686  -0.5677  -0.5677  -0.5672
    -0.5672  -0.5672  -0.5665  -0.5665  -0.5665  -0.5657  -0.5657  -0.5657
    -0.5637  -0.5637  -0.5637  -0.5613  -0.5613  -0.5613  -0.5267  -0.5105
    -0.5105  -0.5037  -0.5037  -0.5037  -0.4337  -0.4332  -0.4332  -0.4332
    -0.4313  -0.4313  -0.4313  -0.4308  -0.4308  -0.4308  -0.4302  -0.4302
    -0.4292  -0.4292  -0.4292  -0.4277  -0.4277  -0.4277  -0.4277  -0.4153
    -0.4153  -0.3585  -0.3585  -0.3585  -0.3203  -0.3203  -0.3203  -0.3198
    -0.3198  -0.3198  -0.3195  -0.3195  -0.3178  -0.3178  -0.3178  -0.3174
    -0.3169  -0.3169  -0.3169  -0.3165  -0.3165  -0.3165  -0.2890  -0.2873
    -0.2873  -0.1753  -0.1753  -0.1753  -0.1701  -0.1701  -0.1689  -0.1689
    -0.1689  -0.1665  -0.1665  -0.1665  -0.1645  -0.1645  -0.1645  -0.1471
    -0.1471  -0.1471  -0.1470  -0.1470  -0.1301  -0.1301  -0.1301  -0.1298
    -0.1298  -0.1292  -0.1274  -0.1274  -0.1274  -0.1260  -0.1260  -0.1260
    -0.1252  -0.1252  -0.1252  -0.1243  -0.1224  -0.1224  -0.1224  -0.0813
    -0.0813  -0.0813  -0.0228  -0.0228  -0.0116  -0.0116  -0.0116  -0.0098
    -0.0098  -0.0098  -0.0094  -0.0094  -0.0093  -0.0089  -0.0089  -0.0089
    -0.0074  -0.0074  -0.0074  -0.0053  -0.0053  -0.0053   0.0292   1.1103
     1.1103   1.1103   1.1550   1.1550   1.1837   1.1837   1.1837   1.1844
     1.1852   1.1852   1.1852   1.1867   1.1867   1.1890   1.1890   1.1890
     1.1943   1.1943   1.1943   1.2174   1.2174   1.2174   1.6856   2.6612
     2.6612   2.6612   2.7888   2.7999   2.7999   2.7999   2.9061   3.0810
     3.0810   3.1591   3.1591   3.1591   3.2446   3.2446   3.2446   3.2447
     3.2449   3.2449   3.2470   3.2470   3.2470   3.2470   3.2470   3.2470
     3.2492   3.2492   3.2492   3.2947   3.2947   3.2947   3.4161   3.8648
     3.8648   3.8648   3.9606   3.9606   4.0244   4.0256   4.0256   4.0256
     4.0278   4.0278   4.0284   4.0284   4.0284   4.0310   4.0310   4.0310
     4.0320   4.0437   4.0437   4.0437   4.0508   4.0508   4.0508   4.8206
     4.8206   4.8206   5.0123   5.0123   5.1179   5.1179   5.1179   5.1179
     5.1179   5.1242   5.1242   5.1242   5.1260   5.1260   5.1260   5.7649
     5.7649   7.1136   7.1136   7.1136   8.9692   8.9714   8.9714   8.9714
     8.9839   8.9839   8.9839   9.1479   9.8802   9.8802   9.8802   9.8837
     9.8837   9.8837   9.8840   9.8840   9.8849   9.8867   9.8867   9.8867
     9.8877   9.8877   9.8877   9.8905   9.8905   9.8905   9.9938   9.9938
    10.0399  10.0399  10.0399  10.3844  11.4876  11.4876  11.4876  11.4891
    11.4891  11.4891  11.4909  11.4909  11.4913  11.4922  11.4922  11.4922
    11.4953  11.4953  11.4953  11.4983  11.4983  11.5027  11.5027  11.5027
    11.6379  11.6379  11.6379  12.1500  12.4508

     occupation numbers
     1.0000   1.0000   1.0000   1.0000   1.0000   1.0000   1.0000   1.0000
     1.0000   1.0000   1.0000   1.0000   1.0000   1.0000   1.0000   1.0000
     1.0000   1.0000   1.0000   1.0000   1.0000   1.0000   1.0000   1.0000
     1.0000   1.0000   1.0000   1.0000   1.0000   1.0000   1.0000   1.0000
     1.0000   1.0000   1.0000   1.0000   1.0000   1.0000   1.0000   1.0000
     1.0000   1.0000   1.0000   1.0000   1.0000   1.0000   1.0000   1.0000
     1.0000   1.0000   1.0000   1.0000   1.0000   1.0000   1.0000   1.0000
     1.0000   1.0000   1.0000   1.0000   1.0000   1.0000   1.0000   1.0000
     1.0000   1.0000   1.0000   1.0000   1.0000   1.0000   1.0000   1.0000
     1.0000   1.0000   1.0000   1.0000   1.0000   1.0000   1.0000   1.0000
     1.0000   1.0000   1.0000   1.0000   1.0000   1.0000   1.0000   1.0000
     1.0000   1.0000   1.0000   1.0000   1.0000   1.0000   1.0000   1.0000
     1.0000   1.0000   1.0000   1.0000   1.0000   1.0000   1.0000   1.0000
     1.0000   1.0000   1.0000   1.0000   1.0000   1.0000   1.0000   1.0000
     1.0000   1.0000   1.0000   1.0000   1.0000   1.0000   1.0000   1.0000
     1.0000   1.0000   1.0000   1.0000   1.0000   1.0000   1.0000   1.0000
     1.0000   1.0000   1.0000   1.0000   1.0000   1.0000   1.0000   1.0000
     1.0000   1.0000   1.0000   1.0000   1.0000   1.0000   1.0000   1.0000
     1.0000   1.0000   1.0000   1.0000   1.0000   1.0000   1.0000   1.0000
     1.0000   1.0000   1.0000   1.0000   1.0000   1.0000   1.0000   1.0000
     1.0000   1.0000   1.0000   1.0000   1.0000   1.0000   1.0000   1.0000
     1.0000   1.0000   1.0000   1.0000   1.0000   1.0000   1.0000   1.0000
     1.0000   1.0000   1.0000   1.0000   1.0000   1.0000   1.0000   1.0000
     1.0000   1.0000   1.0000   1.0000   1.0000   1.0000   1.0000   1.0000
     1.0000   1.0000   1.0000   1.0000   1.0000   1.0000   1.0000   1.0000
     1.0000   1.0000   1.0000   1.0000   1.0000   1.0000   1.0000   1.0000
     1.0000   1.0000   1.0000   1.0000   1.0000   1.0000   1.0000   1.0000
     1.0000   1.0000   1.0000   1.0000   1.0000   1.0000   1.0000   1.0000
     1.0000   1.0000   1.0000   1.0000   1.0000   1.0000   1.0000   1.0000
     1.0000   1.0000   1.0000   1.0000   1.0000   1.0000   1.0000   1.0000
     1.0000   1.0000   1.0000   1.0000   1.0000   1.0000   1.0000   1.0000
     1.0000   1.0000   1.0000   1.0000   1.0000   1.0000   1.0000   1.0000
     1.0000   1.0000   1.0000   1.0000   1.0000   1.0000   1.0000   1.0000
     1.0000   1.0000   1.0000   1.0000   1.0000   1.0000   1.0000   1.0000
     1.0000   1.0000   1.0000   1.0000   1.0000   1.0000   1.0000   1.0000
     1.0000   1.0000   1.0000   1.0000   1.0000   1.0000   1.0000   1.0000
     1.0000   0.0000   0.0000   0.0000   0.0000   0.0000   0.0000   0.0000
     0.0000   0.0000   0.0000   0.0000   0.0000   0.0000   0.0000   0.0000
     0.0000   0.0000   0.0000   0.0000   0.0000   0.0000   0.0000   0.0000
     0.0000   0.0000   0.0000   0.0000   0.0000   0.0000   0.0000   0.0000
     0.0000   0.0000   0.0000   0.0000   0.0000   0.0000   0.0000   0.0000
     0.0000   0.0000   0.0000   0.0000   0.0000   0.0000   0.0000   0.0000
     0.0000   0.0000   0.0000   0.0000   0.0000   0.0000   0.0000   0.0000
     0.0000   0.0000   0.0000   0.0000   0.0000

     the Fermi energy is     6.1539 ev

!    total energy              =  -10057.27362174 Ry
     total all-electron energy =   -139694.995532 Ry
     estimated scf accuracy    <       0.00000089 Ry
     smearing contrib. (-TS)   =      -0.00000000 Ry
     internal energy E=F+TS    =  -10057.27362174 Ry

     The total energy is F=E-TS. E is the sum of the following terms:
     one-electron contribution =   -2924.78088590 Ry
     hartree contribution      =    2036.32775652 Ry
     xc contribution           =   -1658.13056573 Ry
     ewald contribution        =   -2988.82385507 Ry
     one-center paw contrib.   =   -4521.86607156 Ry
      -> PAW hartree energy AE =     123.27900186 Ry
      -> PAW hartree energy PS =    -122.63714854 Ry
      -> PAW xc energy AE      =    -143.20947938 Ry
      -> PAW xc energy PS      =      47.14808561 Ry
      -> total E_H with PAW    =    2036.96960985 Ry
      -> total E_XC with PAW   =   -1754.19195949 Ry

     total magnetization       =     3.00 Bohr mag/cell
     absolute magnetization    =     3.03 Bohr mag/cell

     convergence has been achieved in  13 iterations

     General routines

     Parallel routines

     PAW routines

   This run was terminated on:  17:36: 9  27Jun2024

   JOB DONE.