     Program PWSCF v.7.2 starts on 29Jun2024 at  1: 8:59

     Reading input from 1.Cu_in_ZnS.scf.q0.unrlxd.in

     Current dimensions of program PWSCF are:
     Max number of different atomic species (ntypx) = 10
     Max number of k-points (npk) =  40000
     Max angular momentum in pseudopotentials (lmaxx) =  4
     file S.pbe-n-kjpaw_psl.1.0.0.UPF: wavefunction(s)  3S 3P renormalized
     file Zn.pbe-dnl-kjpaw_psl.1.0.0.UPF: wavefunction(s)  4S 3D renormalized
     file Cu.pbe-spn-kjpaw_psl.1.0.0.UPF: wavefunction(s)  4S 3P 3D renormalized

     K-points division:     npool     =       5
     R & G space division:  proc/nbgrp/npool/nimage =     112
     Subspace diagonalization in iterative solution of the eigenvalue problem:
     one sub-group per band group will be used

     Using Slab Decomposition

     bravais-lattice index     =            1
     lattice parameter (alat)  =      20.5686  a.u.
     unit-cell volume          =    8701.8437 (a.u.)^3
     number of atoms/cell      =           64
     number of atomic types    =            3
     number of electrons       =       583.00
     number of Kohn-Sham states=          350
     kinetic-energy cutoff     =     150.0000  Ry
     charge density cutoff     =     600.0000  Ry
     scf convergence threshold =      1.0E-08
     mixing beta               =       0.7000
     number of iterations used =            8  plain     mixing
     Exchange-correlation= SLA  PW   PBX  PBC
                           (   1   4   3   4   0   0   0)

     celldm(1)=  20.568554  celldm(2)=   0.000000  celldm(3)=   0.000000
     celldm(4)=   0.000000  celldm(5)=   0.000000  celldm(6)=   0.000000

     crystal axes: (cart. coord. in units of alat)
               a(1) = (   1.000000   0.000000   0.000000 )
               a(2) = (   0.000000   1.000000   0.000000 )
               a(3) = (   0.000000   0.000000   1.000000 )

     reciprocal axes: (cart. coord. in units 2 pi/alat)
               b(1) = (  1.000000  0.000000  0.000000 )
               b(2) = (  0.000000  1.000000  0.000000 )
               b(3) = (  0.000000  0.000000  1.000000 )

     PseudoPot. # 1 for S  read from file:
     /arf/home/amuhaymin/pseudo/S.pbe-n-kjpaw_psl.1.0.0.UPF
     MD5 check sum: fb45dfebcf3e72a4e1bd4a866ec2e262
     Pseudo is Projector augmented-wave + core cor, Zval =  6.0
     Generated using &quot;atomic&quot; code by A. Dal Corso  v.6.3
     Shape of augmentation charge: PSQ
     Using radial grid of 1151 points,  6 beta functions with:
                l(1) =   0
                l(2) =   0
                l(3) =   1
                l(4) =   1
                l(5) =   2
                l(6) =   2
     Q(r) pseudized with 0 coefficients

     PseudoPot. # 2 for Zn read from file:
     /arf/home/amuhaymin/pseudo/Zn.pbe-dnl-kjpaw_psl.1.0.0.UPF
     MD5 check sum: c608214d9520ac179f507641260889e3
     Pseudo is Projector augmented-wave + core cor, Zval = 12.0
     Generated using &quot;atomic&quot; code by A. Dal Corso  v.6.2.2
     Shape of augmentation charge: PSQ
     Using radial grid of 1201 points,  6 beta functions with:
                l(1) =   0
                l(2) =   0
                l(3) =   1
                l(4) =   1
                l(5) =   2
                l(6) =   2
     Q(r) pseudized with 0 coefficients

     PseudoPot. # 3 for Cu read from file:
     /arf/home/amuhaymin/pseudo/Cu.pbe-spn-kjpaw_psl.1.0.0.UPF
     MD5 check sum: e7cbaad2f97193e5fe23251a619a52b0
     Pseudo is Projector augmented-wave + core cor, Zval = 19.0
     Generated using &quot;atomic&quot; code by A. Dal Corso  v.6.3
     Shape of augmentation charge: PSQ
     Using radial grid of 1199 points,  6 beta functions with:
                l(1) =   0
                l(2) =   0
                l(3) =   1
                l(4) =   1
                l(5) =   2
                l(6) =   2
     Q(r) pseudized with 0 coefficients

     atomic species   valence    mass     pseudopotential
        S              6.00    32.06500     S ( 1.00)
        Zn            12.00    65.38000     Zn( 1.00)
        Cu            19.00    63.54600     Cu( 1.00)

     Starting magnetic structure
     atomic species   magnetization
        S            0.000
        Zn           0.000
        Cu           0.053

     24 Sym. Ops. (no inversion) found

                                    s                        frac. trans.

      isym =  1     identity

 cryst.   s( 1) = (     1          0          0      )
                  (     0          1          0      )
                  (     0          0          1      )

 cart.    s( 1) = (  1.0000000  0.0000000  0.0000000 )
                  (  0.0000000  1.0000000  0.0000000 )
                  (  0.0000000  0.0000000  1.0000000 )

      isym =  2     180 deg rotation - cart. axis [0,0,1]

[...]

 cryst.   s( 9) = (     0          1          0      )
                  (     0          0          1      )
                  (     1          0          0      )

 cart.    s( 9) = (  0.0000000  0.0000000  1.0000000 )
                  (  1.0000000  0.0000000  0.0000000 )
                  (  0.0000000  1.0000000  0.0000000 )

[...]

 cryst.   s(10) = (     0         -1          0      )
                  (     0          0         -1      )
                  (     1          0          0      )

 cart.    s(10) = (  0.0000000  0.0000000  1.0000000 )
                  ( -1.0000000  0.0000000  0.0000000 )
                  (  0.0000000 -1.0000000  0.0000000 )

[...]

      isym = 12     120 deg rotation - cart. axis [-1,-1,1]

[...]

      isym = 13     inv. 180 deg rotation - cart. axis [1,1,0]

[...]

      isym = 24     inv.  90 deg rotation - cart. axis [1,0,0]

 cryst.   s(24) = (    -1          0          0      )
                  (     0          0         -1      )
                  (     0          1          0      )

 cart.    s(24) = ( -1.0000000  0.0000000  0.0000000 )
                  (  0.0000000  0.0000000  1.0000000 )
                  (  0.0000000 -1.0000000  0.0000000 )

     point group T_d (-43m)
     there are  5 classes
     the character table:

       E     8C3   3C2   6S4   6s_d
A_1    1.00  1.00  1.00  1.00  1.00
A_2    1.00  1.00  1.00 -1.00 -1.00
E      2.00 -1.00  2.00  0.00  0.00
T_1    3.00  0.00 -1.00  1.00 -1.00
T_2    3.00  0.00 -1.00 -1.00  1.00

     the symmetry operations in each class and the name of the first element:

     E        1
          identity
     8C3      5    7    8    6   12    9   10   11
          120 deg rotation - cart. axis [-1,-1,-1]
     3C2      2    3    4
          180 deg rotation - cart. axis [0,0,1]
     6S4     15   16   20   19   23   24
          inv.  90 deg rotation - cart. axis [0,0,-1]
     6s_d    13   14   17   18   21   22
          inv. 180 deg rotation - cart. axis [1,1,0]

   Cartesian axes

     site n.     atom                  positions (alat units)
         1           Zn  tau(   1) = (   0.0000000   0.0000000   0.0000000  )
         2           Zn  tau(   2) = (   0.0000000   0.2500000   0.2500000  )
         3           Zn  tau(   3) = (   0.2500000   0.0000000   0.2500000  )
         4           Zn  tau(   4) = (   0.2500000   0.2500000   0.0000000  )
         5           S   tau(   5) = (   0.1250000   0.3750000   0.3750000  )
         6           S   tau(   6) = (   0.1250000   0.1250000   0.1250000  )
         7           S   tau(   7) = (   0.3750000   0.3750000   0.1250000  )
         8           S   tau(   8) = (   0.3750000   0.1250000   0.3750000  )
         9           Zn  tau(   9) = (   0.0000000   0.0000000   0.5000000  )
        10           Zn  tau(  10) = (   0.0000000   0.2500000   0.7500000  )
        11           Zn  tau(  11) = (   0.2500000   0.0000000   0.7500000  )
        12           Zn  tau(  12) = (   0.2500000   0.2500000   0.5000000  )
        13           S   tau(  13) = (   0.1250000   0.3750000   0.8750000  )
        14           S   tau(  14) = (   0.1250000   0.1250000   0.6250000  )
        15           S   tau(  15) = (   0.3750000   0.3750000   0.6250000  )
        16           S   tau(  16) = (   0.3750000   0.1250000   0.8750000  )
        17           Zn  tau(  17) = (   0.0000000   0.5000000   0.0000000  )
        18           Zn  tau(  18) = (   0.0000000   0.7500000   0.2500000  )
        19           Zn  tau(  19) = (   0.2500000   0.5000000   0.2500000  )
        20           Zn  tau(  20) = (   0.2500000   0.7500000   0.0000000  )
        21           S   tau(  21) = (   0.1250000   0.8750000   0.3750000  )
        22           S   tau(  22) = (   0.1250000   0.6250000   0.1250000  )
        23           S   tau(  23) = (   0.3750000   0.8750000   0.1250000  )
        24           S   tau(  24) = (   0.3750000   0.6250000   0.3750000  )
        25           Zn  tau(  25) = (   0.0000000   0.5000000   0.5000000  )
        26           Zn  tau(  26) = (   0.0000000   0.7500000   0.7500000  )
        27           Zn  tau(  27) = (   0.2500000   0.5000000   0.7500000  )
        28           Zn  tau(  28) = (   0.2500000   0.7500000   0.5000000  )
        29           S   tau(  29) = (   0.1250000   0.8750000   0.8750000  )
        30           S   tau(  30) = (   0.1250000   0.6250000   0.6250000  )
        31           S   tau(  31) = (   0.3750000   0.8750000   0.6250000  )
        32           S   tau(  32) = (   0.3750000   0.6250000   0.8750000  )
        33           Zn  tau(  33) = (   0.5000000   0.0000000   0.0000000  )
        34           Zn  tau(  34) = (   0.5000000   0.2500000   0.2500000  )
        35           Zn  tau(  35) = (   0.7500000   0.0000000   0.2500000  )
        36           Zn  tau(  36) = (   0.7500000   0.2500000   0.0000000  )
        37           S   tau(  37) = (   0.6250000   0.3750000   0.3750000  )
        38           S   tau(  38) = (   0.6250000   0.1250000   0.1250000  )
        39           S   tau(  39) = (   0.8750000   0.3750000   0.1250000  )
        40           S   tau(  40) = (   0.8750000   0.1250000   0.3750000  )
        41           Zn  tau(  41) = (   0.5000000   0.0000000   0.5000000  )
        42           Zn  tau(  42) = (   0.5000000   0.2500000   0.7500000  )
        43           Zn  tau(  43) = (   0.7500000   0.0000000   0.7500000  )
        44           Zn  tau(  44) = (   0.7500000   0.2500000   0.5000000  )
        45           S   tau(  45) = (   0.6250000   0.3750000   0.8750000  )
        46           S   tau(  46) = (   0.6250000   0.1250000   0.6250000  )
        47           S   tau(  47) = (   0.8750000   0.3750000   0.6250000  )
        48           S   tau(  48) = (   0.8750000   0.1250000   0.8750000  )
        49           Zn  tau(  49) = (   0.5000000   0.5000000   0.0000000  )
        50           Zn  tau(  50) = (   0.5000000   0.7500000   0.2500000  )
        51           Zn  tau(  51) = (   0.7500000   0.5000000   0.2500000  )
        52           Zn  tau(  52) = (   0.7500000   0.7500000   0.0000000  )
        53           S   tau(  53) = (   0.6250000   0.8750000   0.3750000  )
        54           S   tau(  54) = (   0.6250000   0.6250000   0.1250000  )
        55           S   tau(  55) = (   0.8750000   0.8750000   0.1250000  )
[...]
     atom  31 (R=0.089)  charge=  3.9924  magn=  0.0045
     atom  32 (R=0.089)  charge=  3.9924  magn=  0.0045
     atom  33 (R=0.089)  charge= 10.1599  magn=  0.0020
     atom  34 (R=0.089)  charge= 10.1590  magn=  0.0032
     atom  35 (R=0.089)  charge= 10.1594  magn=  0.0010
     atom  36 (R=0.089)  charge= 10.1594  magn=  0.0010
     atom  37 (R=0.089)  charge=  3.9751  magn=  0.0575
     atom  38 (R=0.089)  charge=  3.9919  magn=  0.0099
     atom  39 (R=0.089)  charge=  3.9919  magn=  0.0099
     atom  40 (R=0.089)  charge=  3.9919  magn=  0.0099
     atom  41 (R=0.089)  charge= 10.1596  magn=  0.0005
     atom  42 (R=0.089)  charge= 10.1590  magn=  0.0032
     atom  43 (R=0.089)  charge= 10.1594  magn=  0.0010
     atom  44 (R=0.089)  charge= 10.1590  magn=  0.0032
     atom  45 (R=0.089)  charge=  3.9924  magn=  0.0045
     atom  46 (R=0.089)  charge=  3.9924  magn=  0.0045
     atom  47 (R=0.089)  charge=  3.9924  magn=  0.0045
     atom  48 (R=0.089)  charge=  3.9925  magn=  0.0057
     atom  49 (R=0.089)  charge= 10.1596  magn=  0.0005
     atom  50 (R=0.089)  charge= 10.1590  magn=  0.0032
     atom  51 (R=0.089)  charge= 10.1590  magn=  0.0032
     atom  52 (R=0.089)  charge= 10.1594  magn=  0.0010
     atom  53 (R=0.089)  charge=  3.9924  magn=  0.0045
     atom  54 (R=0.089)  charge=  3.9924  magn=  0.0045
     atom  55 (R=0.089)  charge=  3.9925  magn=  0.0057
     atom  56 (R=0.089)  charge=  3.9924  magn=  0.0045
     atom  57 (R=0.089)  charge= 17.3190  magn=  0.3182
     atom  58 (R=0.089)  charge= 10.1590  magn=  0.0032
     atom  59 (R=0.089)  charge= 10.1590  magn=  0.0032
     atom  60 (R=0.089)  charge= 10.1590  magn=  0.0032
     atom  61 (R=0.089)  charge=  3.9919  magn=  0.0099
     atom  62 (R=0.089)  charge=  3.9751  magn=  0.0575
     atom  63 (R=0.089)  charge=  3.9919  magn=  0.0099
     atom  64 (R=0.089)  charge=  3.9919  magn=  0.0099

     End of self-consistent calculation

 ------ SPIN UP ------------

          k = 0.0000 0.0000 0.0000 (269825 PWs)   bands (ev):

  -106.0053 -63.3822 -63.3822 -63.3822  -7.4606  -6.9351  -6.9351  -6.9238
    -6.9238  -6.9238  -6.8843  -6.6140  -6.6140  -6.6140  -6.6119  -6.6119
    -6.6119  -6.6108  -6.6108  -6.6097  -6.6097  -6.6097  -6.6093  -6.5266
    -6.5266  -6.5266  -6.4660  -6.2996  -6.2996  -6.2996  -6.2818  -6.2818
    -6.2818  -6.1975  -6.1975  -6.1975  -0.7236  -0.7236  -0.7220  -0.7220
    -0.7220  -0.7215  -0.6842  -0.6842  -0.6776  -0.6703  -0.6703  -0.6703
    -0.5837  -0.5837  -0.5837  -0.5835  -0.5835  -0.5750  -0.5750  -0.5750
    -0.5695  -0.5695  -0.5695  -0.5625  -0.5625  -0.5625  -0.5592  -0.5592
    -0.5592  -0.5576  -0.5575  -0.5542  -0.5542  -0.5455  -0.5455  -0.5455
    -0.5455  -0.5455  -0.5455  -0.5409  -0.5409  -0.5409  -0.5333  -0.5333
    -0.5333  -0.5314  -0.5314  -0.5239  -0.5239  -0.5239  -0.5238  -0.5238
    -0.5238  -0.5180  -0.5081  -0.5081  -0.5081  -0.4768  -0.4768  -0.4448
    -0.4448  -0.4448  -0.4068  -0.4068  -0.4068  -0.4006  -0.4006  -0.4006
    -0.4000  -0.4000  -0.4000  -0.3921  -0.3921  -0.3921  -0.3906  -0.3906
    -0.3659  -0.3646  -0.3646  -0.3646  -0.3403  -0.3403  -0.3403  -0.2616
    -0.2616  -0.2616  -0.2574  -0.2574  -0.2567  -0.2567  -0.2567  -0.2486
    -0.2434  -0.2434  -0.2405  -0.2405  -0.2405  -0.2398  -0.2334  -0.2306
    -0.2306  -0.2156  -0.2156  -0.2156  -0.2133  -0.2060  -0.2060  -0.2060
    -0.2031  -0.2031  -0.2031  -0.2030  -0.2030  -0.1923  -0.1923  -0.1760
    -0.1760  -0.1760  -0.1689  -0.1660  -0.1660  -0.1619  -0.1619  -0.1619
    -0.1561  -0.1561  -0.1552  -0.1552  -0.1552  -0.1495  -0.1495  -0.1495
    -0.1338  -0.1319  -0.1319  -0.1319  -0.1242  -0.1242  -0.1240  -0.1240
    -0.1240  -0.1139  -0.0309  -0.0309  -0.0309   0.0040   0.0081   0.0081
     0.0081   0.1440   0.1440   0.1440   0.1833   0.1833   0.1833   0.3906
     0.3906   0.3906   0.4254   1.0316   1.0316   1.0435   1.0523   1.0523
     1.0536   1.0536   1.0536   1.2404   1.5513   1.5513   1.5513   1.6554
     1.6554   1.6645   1.6645   1.6645   1.6770   1.6770   1.6770   1.9175
     2.6907   2.6907   2.6907   2.7859   2.7859   2.8895   2.8895   2.8895
     2.8965   2.8965   2.8965   2.9037   2.9394   2.9394   2.9394   2.9759
     2.9759   3.0620   3.0620   3.0687   3.0687   3.0687   3.0692   3.1096
     3.1096   3.1096   3.1508   3.1508   3.1508   3.2049   3.3511   3.3511
     3.3511   3.3980   3.3980   3.3980   3.7010   3.7010   3.7010   4.0424
     4.0424   4.3398   4.3398   4.3398   4.3505   4.3505   4.3505   4.3723
     4.3723   4.3723   4.4627   4.4627   4.4627   4.6580   4.6580   4.6580
     4.6600   4.6621   4.6621   4.6621   4.6667   4.6667   4.6667   4.6719
     4.6719   4.7235   4.7235   4.7235   4.9076   4.9076   5.1652   5.1652
     5.1652   5.6874   5.6874   5.6874   7.5814   8.8123   8.8123   8.8123
     8.8716   9.0244   9.0244   9.0244   9.6266   9.6266   9.6408   9.9821
     9.9821   9.9821   9.9830   9.9830  10.0265  10.1147  10.1147  10.1334
    10.1334  10.1334  10.1442  10.3088  10.3088  10.3103  10.3103  10.3103
    10.3112  10.3112  10.3112  10.3473  10.3473  10.3473  10.6899  11.2392
    11.2392  11.2392  11.2885  11.2885  11.2885  11.4680  11.4680  11.4686
    11.4686  11.4686  11.7453  11.9486  11.9486  11.9487  12.1794  12.1794
    12.1794  12.1825  12.1825  12.1826  12.1968  12.1969

     occupation numbers
     1.0000   1.0000   1.0000   1.0000   1.0000   1.0000   1.0000   1.0000
     1.0000   1.0000   1.0000   1.0000   1.0000   1.0000   1.0000   1.0000
     1.0000   1.0000   1.0000   1.0000   1.0000   1.0000   1.0000   1.0000
     1.0000   1.0000   1.0000   1.0000   1.0000   1.0000   1.0000   1.0000
     1.0000   1.0000   1.0000   1.0000   1.0000   1.0000   1.0000   1.0000
     1.0000   1.0000   1.0000   1.0000   1.0000   1.0000   1.0000   1.0000
     1.0000   1.0000   1.0000   1.0000   1.0000   1.0000   1.0000   1.0000
     1.0000   1.0000   1.0000   1.0000   1.0000   1.0000   1.0000   1.0000
     1.0000   1.0000   1.0000   1.0000   1.0000   1.0000   1.0000   1.0000
     1.0000   1.0000   1.0000   1.0000   1.0000   1.0000   1.0000   1.0000
     1.0000   1.0000   1.0000   1.0000   1.0000   1.0000   1.0000   1.0000
     1.0000   1.0000   1.0000   1.0000   1.0000   1.0000   1.0000   1.0000
     1.0000   1.0000   1.0000   1.0000   1.0000   1.0000   1.0000   1.0000
     1.0000   1.0000   1.0000   1.0000   1.0000   1.0000   1.0000   1.0000
     1.0000   1.0000   1.0000   1.0000   1.0000   1.0000   1.0000   1.0000
     1.0000   1.0000   1.0000   1.0000   1.0000   1.0000   1.0000   1.0000
     1.0000   1.0000   1.0000   1.0000   1.0000   1.0000   1.0000   1.0000
     1.0000   1.0000   1.0000   1.0000   1.0000   1.0000   1.0000   1.0000
     1.0000   1.0000   1.0000   1.0000   1.0000   1.0000   1.0000   1.0000
     1.0000   1.0000   1.0000   1.0000   1.0000   1.0000   1.0000   1.0000
     1.0000   1.0000   1.0000   1.0000   1.0000   1.0000   1.0000   1.0000
     1.0000   1.0000   1.0000   1.0000   1.0000   1.0000   1.0000   1.0000
     1.0000   1.0000   1.0000   1.0000   1.0000   1.0000   1.0000   1.0000
     1.0000   1.0000   1.0000   1.0000   1.0000   1.0000   1.0000   1.0000
     1.0000   1.0000   1.0000   1.0000   1.0000   1.0000   1.0000   1.0000
     1.0000   1.0000   1.0000   1.0000   1.0000   1.0000   1.0000   1.0000
     1.0000   1.0000   1.0000   1.0000   1.0000   1.0000   1.0000   1.0000
     1.0000   1.0000   1.0000   1.0000   1.0000   1.0000   1.0000   1.0000
     1.0000   1.0000   1.0000   1.0000   1.0000   1.0000   1.0000   1.0000
     1.0000   1.0000   1.0000   1.0000   1.0000   1.0000   1.0000   1.0000
     1.0000   1.0000   1.0000   1.0000   1.0000   1.0000   1.0000   1.0000
     1.0000   1.0000   1.0000   1.0000   1.0000   1.0000   1.0000   1.0000
     1.0000   1.0000   1.0000   1.0000   1.0000   1.0000   1.0000   1.0000
     1.0000   1.0000   1.0000   1.0000   1.0000   1.0000   1.0000   1.0000
     1.0000   1.0000   1.0000   1.0000   1.0000   1.0000   1.0000   1.0000
     1.0000   1.0000   1.0000   1.0000   1.0000   1.0000   1.0000   1.0000
     1.0000   0.9998   0.9998   0.9998   0.0000   0.0000   0.0000   0.0000
     0.0000   0.0000   0.0000   0.0000   0.0000   0.0000   0.0000   0.0000
     0.0000   0.0000   0.0000   0.0000   0.0000   0.0000   0.0000   0.0000
     0.0000   0.0000   0.0000   0.0000   0.0000   0.0000   0.0000   0.0000
     0.0000   0.0000   0.0000   0.0000   0.0000   0.0000   0.0000   0.0000
     0.0000   0.0000   0.0000   0.0000   0.0000   0.0000   0.0000   0.0000
     0.0000   0.0000   0.0000   0.0000   0.0000   0.0000   0.0000   0.0000
     0.0000   0.0000   0.0000   0.0000   0.0000   0.0000

[...]

          k =-0.5000-0.5000-0.5000 (269968 PWs)   bands (ev):

[...]

 ------ SPIN DOWN ----------

[...]

          k = 0.2500-0.5000-0.5000 (269956 PWs)   bands (ev):

[...]

          k =-0.5000-0.5000-0.5000 (269968 PWs)   bands (ev):

  -105.6176 -63.0042 -63.0042 -63.0042  -7.0825  -7.0678  -7.0678  -7.0678
    -7.0375  -7.0375  -7.0375  -6.9166  -6.4644  -6.4644  -6.4644  -6.4537
    -6.4502  -6.4502  -6.4500  -6.4500  -6.4500  -6.4451  -6.4451  -6.4451
    -6.4318  -6.4318  -6.4318  -6.4279  -6.4279  -6.4279  -6.4271  -6.4271
    -6.2940  -6.2233  -6.2233  -6.2233  -0.6432  -0.6432  -0.6432  -0.6374
    -0.6312  -0.6312  -0.6312  -0.6271  -0.6271  -0.6260  -0.6260  -0.6260
    -0.6143  -0.6126  -0.6126  -0.6126  -0.6123  -0.6123  -0.6123  -0.6122
    -0.6122  -0.6095  -0.6032  -0.6032  -0.6032  -0.6002  -0.6002  -0.6002
    -0.6000  -0.6000  -0.5894  -0.5894  -0.5894  -0.5892  -0.5892  -0.5892
    -0.5859  -0.5859  -0.5859  -0.5792  -0.5792  -0.5792  -0.5425  -0.5228
    -0.5228  -0.5195  -0.5195  -0.5195  -0.4762  -0.4700  -0.4700  -0.4700
    -0.4646  -0.4646  -0.4646  -0.4623  -0.4623  -0.4623  -0.4617  -0.4617
    -0.4484  -0.4484  -0.4484  -0.4414  -0.4414  -0.4414  -0.4343  -0.4256
    -0.4256  -0.3754  -0.3754  -0.3754  -0.3544  -0.3544  -0.3512  -0.3512
    -0.3512  -0.3498  -0.3498  -0.3498  -0.3478  -0.3478  -0.3478  -0.3404
    -0.3391  -0.3391  -0.3391  -0.3373  -0.3373  -0.3373  -0.3109  -0.3005
    -0.3005  -0.2189  -0.2189  -0.2071  -0.2071  -0.2071  -0.2070  -0.2070
    -0.2070  -0.1914  -0.1914  -0.1914  -0.1897  -0.1897  -0.1897  -0.1784
    -0.1784  -0.1743  -0.1743  -0.1743  -0.1707  -0.1707  -0.1707  -0.1704
    -0.1533  -0.1533  -0.1533  -0.1509  -0.1509  -0.1509  -0.1497  -0.1497
    -0.1390  -0.1390  -0.1390  -0.1332  -0.1332  -0.1332  -0.1293  -0.0953
    -0.0953  -0.0953  -0.0515  -0.0515  -0.0515  -0.0481  -0.0481  -0.0455
    -0.0408  -0.0408  -0.0408  -0.0351  -0.0351  -0.0351  -0.0343  -0.0343
    -0.0269  -0.0269  -0.0269  -0.0240  -0.0240  -0.0240   0.0134   1.0867
     1.0867   1.0867   1.1395   1.1395   1.1411   1.1460   1.1460   1.1460
     1.1487   1.1487   1.1487   1.1584   1.1584   1.1608   1.1608   1.1608
     1.1891   1.1891   1.1891   1.2190   1.2190   1.2190   1.6414   2.5981
     2.5981   2.5981   2.7553   2.7738   2.7738   2.7738   2.8792   3.0469
     3.0469   3.0922   3.0922   3.0922   3.2080   3.2080   3.2080   3.2090
     3.2090   3.2108   3.2185   3.2185   3.2185   3.2188   3.2188   3.2188
     3.2309   3.2309   3.2309   3.2915   3.2915   3.2915   3.3621   3.6802
     3.6802   3.6802   3.8743   3.8743   3.9839   3.9871   3.9871   3.9871
     3.9938   3.9938   3.9955   3.9955   3.9955   4.0070   4.0070   4.0070
     4.0118   4.0233   4.0233   4.0233   4.0631   4.0631   4.0631   4.5089
     4.5089   4.5305   4.5305   4.5305   5.0829   5.0829   5.0845   5.0845
     5.0845   5.0933   5.0933   5.0933   5.1097   5.1097   5.1097   5.1868
     5.1868   5.7355   5.7355   5.7355   8.9388   8.9512   8.9512   8.9512
     8.9594   8.9594   8.9594   9.1133   9.8437   9.8437   9.8437   9.8543
     9.8543   9.8543   9.8563   9.8563   9.8563   9.8563   9.8563   9.8616
     9.8744   9.8744   9.8744   9.8755   9.8755   9.8755   9.9477   9.9477
     9.9893   9.9893   9.9893  10.2365  11.4517  11.4517  11.4517  11.4571
    11.4571  11.4571  11.4588  11.4588  11.4621  11.4622  11.4622  11.4665
    11.4782  11.4782  11.4782  11.4803  11.4803  11.5111  11.5111  11.5111
    11.5899  11.5899  11.5899  11.9493  12.4278  12.4393

     occupation numbers
     1.0000   1.0000   1.0000   1.0000   1.0000   1.0000   1.0000   1.0000
     1.0000   1.0000   1.0000   1.0000   1.0000   1.0000   1.0000   1.0000
     1.0000   1.0000   1.0000   1.0000   1.0000   1.0000   1.0000   1.0000
     1.0000   1.0000   1.0000   1.0000   1.0000   1.0000   1.0000   1.0000
     1.0000   1.0000   1.0000   1.0000   1.0000   1.0000   1.0000   1.0000
     1.0000   1.0000   1.0000   1.0000   1.0000   1.0000   1.0000   1.0000
     1.0000   1.0000   1.0000   1.0000   1.0000   1.0000   1.0000   1.0000
     1.0000   1.0000   1.0000   1.0000   1.0000   1.0000   1.0000   1.0000
     1.0000   1.0000   1.0000   1.0000   1.0000   1.0000   1.0000   1.0000
     1.0000   1.0000   1.0000   1.0000   1.0000   1.0000   1.0000   1.0000
     1.0000   1.0000   1.0000   1.0000   1.0000   1.0000   1.0000   1.0000
     1.0000   1.0000   1.0000   1.0000   1.0000   1.0000   1.0000   1.0000
     1.0000   1.0000   1.0000   1.0000   1.0000   1.0000   1.0000   1.0000
     1.0000   1.0000   1.0000   1.0000   1.0000   1.0000   1.0000   1.0000
     1.0000   1.0000   1.0000   1.0000   1.0000   1.0000   1.0000   1.0000
     1.0000   1.0000   1.0000   1.0000   1.0000   1.0000   1.0000   1.0000
     1.0000   1.0000   1.0000   1.0000   1.0000   1.0000   1.0000   1.0000
     1.0000   1.0000   1.0000   1.0000   1.0000   1.0000   1.0000   1.0000
     1.0000   1.0000   1.0000   1.0000   1.0000   1.0000   1.0000   1.0000
     1.0000   1.0000   1.0000   1.0000   1.0000   1.0000   1.0000   1.0000
     1.0000   1.0000   1.0000   1.0000   1.0000   1.0000   1.0000   1.0000
     1.0000   1.0000   1.0000   1.0000   1.0000   1.0000   1.0000   1.0000
     1.0000   1.0000   1.0000   1.0000   1.0000   1.0000   1.0000   1.0000
     1.0000   1.0000   1.0000   1.0000   1.0000   1.0000   1.0000   1.0000
     1.0000   1.0000   1.0000   1.0000   1.0000   1.0000   1.0000   1.0000
     1.0000   1.0000   1.0000   1.0000   1.0000   1.0000   1.0000   1.0000
     1.0000   1.0000   1.0000   1.0000   1.0000   1.0000   1.0000   1.0000
     1.0000   1.0000   1.0000   1.0000   1.0000   1.0000   1.0000   1.0000
     1.0000   1.0000   1.0000   1.0000   1.0000   1.0000   1.0000   1.0000
     1.0000   1.0000   1.0000   1.0000   1.0000   1.0000   1.0000   1.0000
     1.0000   1.0000   1.0000   1.0000   1.0000   1.0000   1.0000   1.0000
     1.0000   1.0000   1.0000   1.0000   1.0000   1.0000   1.0000   1.0000
     1.0000   1.0000   1.0000   1.0000   1.0000   1.0000   1.0000   1.0000
     1.0000   1.0000   1.0000   1.0000   1.0000   1.0000   1.0000   1.0000
     1.0000   1.0000   1.0000   1.0000   1.0000   1.0000   1.0000   1.0000
     1.0000   1.0000   1.0000   1.0000   1.0000   1.0000   1.0000   1.0000
     1.0000   0.0748   0.0748   0.0748   0.0000   0.0000   0.0000   0.0000
     0.0000   0.0000   0.0000   0.0000   0.0000   0.0000   0.0000   0.0000
     0.0000   0.0000   0.0000   0.0000   0.0000   0.0000   0.0000   0.0000
     0.0000   0.0000   0.0000   0.0000   0.0000   0.0000   0.0000   0.0000
     0.0000   0.0000   0.0000   0.0000   0.0000   0.0000   0.0000   0.0000
     0.0000   0.0000   0.0000   0.0000   0.0000   0.0000   0.0000   0.0000
     0.0000   0.0000   0.0000   0.0000   0.0000   0.0000   0.0000   0.0000
     0.0000   0.0000   0.0000   0.0000   0.0000   0.0000

     the Fermi energy is     5.7217 ev

!    total energy              =  -10167.40739435 Ry
     total all-electron energy =   -140218.037563 Ry
     estimated scf accuracy    <          5.2E-09 Ry
     smearing contrib. (-TS)   =      -0.00008852 Ry
     internal energy E=F+TS    =  -10167.40730583 Ry

     The total energy is F=E-TS. E is the sum of the following terms:
     one-electron contribution =   -3063.49180676 Ry
     hartree contribution      =    2110.25686353 Ry
     xc contribution           =   -1665.63655594 Ry
     ewald contribution        =   -3015.40495684 Ry
     one-center paw contrib.   =   -4533.13084981 Ry
      -> PAW hartree energy AE =     123.26562073 Ry
      -> PAW hartree energy PS =    -122.62386982 Ry
      -> PAW xc energy AE      =    -143.20827983 Ry
      -> PAW xc energy PS      =      47.14690278 Ry
      -> total E_H with PAW    =    2110.89861443 Ry
      -> total E_XC with PAW   =   -1761.69793300 Ry

     total magnetization       =     1.00 Bohr mag/cell
     absolute magnetization    =     1.04 Bohr mag/cell

     convergence has been achieved in  14 iterations

     Writing all to output data dir ./out/Cu_q0_unrlxd.save/

     General routines

     Parallel routines

     PAW routines

   This run was terminated on:   1:15:22  29Jun2024

   JOB DONE.