     Program PWSCF v.7.2 starts on 18Jul2024 at 17:14:29

     Reading input from 1.Cu_vac_in_ZnS.scf.qn1.unrlxd.U3.in

     Current dimensions of program PWSCF are:
     Max number of different atomic species (ntypx) = 10
     Max number of k-points (npk) =  40000
     Max angular momentum in pseudopotentials (lmaxx) =  4
     file S.pbe-n-kjpaw_psl.1.0.0.UPF: wavefunction(s)  3S 3P renormalized
     file Zn.pbe-dnl-kjpaw_psl.1.0.0.UPF: wavefunction(s)  4S 3D renormalized
     file Cu.pbe-spn-kjpaw_psl.1.0.0.UPF: wavefunction(s)  4S 3P 3D renormalized

     K-points division:     npool     =      13
     R & G space division:  proc/nbgrp/npool/nimage =     112
     Subspace diagonalization in iterative solution of the eigenvalue problem:
     one sub-group per band group will be used

     Using Slab Decomposition

     bravais-lattice index     =            1
     lattice parameter (alat)  =      20.5686  a.u.
     unit-cell volume          =    8701.8437 (a.u.)^3
     number of atoms/cell      =           63
     number of atomic types    =            3
     number of electrons       =       578.00
     number of Kohn-Sham states=          347
     kinetic-energy cutoff     =     150.0000  Ry
     charge density cutoff     =     600.0000  Ry
     scf convergence threshold =      1.0E-08
     mixing beta               =       0.7000
     number of iterations used =            8  plain     mixing
     Exchange-correlation= SLA  PW   PBX  PBC
                           (   1   4   3   4   0   0   0)
     Hubbard projectors: ortho-atomic
     Hubbard parameters of DFT+U (Dudarev formulation) in eV:
     U(Zn-3d) =  7.0000
     U(Cu-3d) =  3.0000

     Internal variables: lda_plus_u = T, lda_plus_u_kind = 0

     celldm(1)=  20.568554  celldm(2)=   0.000000  celldm(3)=   0.000000
     celldm(4)=   0.000000  celldm(5)=   0.000000  celldm(6)=   0.000000

     crystal axes: (cart. coord. in units of alat)
               a(1) = (   1.000000   0.000000   0.000000 )
               a(2) = (   0.000000   1.000000   0.000000 )
               a(3) = (   0.000000   0.000000   1.000000 )

     reciprocal axes: (cart. coord. in units 2 pi/alat)
               b(1) = (  1.000000  0.000000  0.000000 )
               b(2) = (  0.000000  1.000000  0.000000 )
               b(3) = (  0.000000  0.000000  1.000000 )

     PseudoPot. # 1 for S  read from file:
     /arf/home/amuhaymin/pseudo/S.pbe-n-kjpaw_psl.1.0.0.UPF
     MD5 check sum: fb45dfebcf3e72a4e1bd4a866ec2e262
     Pseudo is Projector augmented-wave + core cor, Zval =  6.0
     Generated using &quot;atomic&quot; code by A. Dal Corso  v.6.3
     Shape of augmentation charge: PSQ
     Using radial grid of 1151 points,  6 beta functions with:
                l(1) =   0
                l(2) =   0
                l(3) =   1
                l(4) =   1
                l(5) =   2
                l(6) =   2
     Q(r) pseudized with 0 coefficients

     PseudoPot. # 2 for Zn read from file:
     /arf/home/amuhaymin/pseudo/Zn.pbe-dnl-kjpaw_psl.1.0.0.UPF
     MD5 check sum: c608214d9520ac179f507641260889e3
     Pseudo is Projector augmented-wave + core cor, Zval = 12.0
     Generated using &quot;atomic&quot; code by A. Dal Corso  v.6.2.2
     Shape of augmentation charge: PSQ
     Using radial grid of 1201 points,  6 beta functions with:
                l(1) =   0
                l(2) =   0
                l(3) =   1
                l(4) =   1
                l(5) =   2
                l(6) =   2
     Q(r) pseudized with 0 coefficients

     PseudoPot. # 3 for Cu read from file:
     /arf/home/amuhaymin/pseudo/Cu.pbe-spn-kjpaw_psl.1.0.0.UPF
     MD5 check sum: e7cbaad2f97193e5fe23251a619a52b0
     Pseudo is Projector augmented-wave + core cor, Zval = 19.0
     Generated using &quot;atomic&quot; code by A. Dal Corso  v.6.3
     Shape of augmentation charge: PSQ
     Using radial grid of 1199 points,  6 beta functions with:
                l(1) =   0
                l(2) =   0
                l(3) =   1
                l(4) =   1
                l(5) =   2
                l(6) =   2
     Q(r) pseudized with 0 coefficients

     atomic species   valence    mass     pseudopotential
        S              6.00    32.06500     S ( 1.00)
        Zn            12.00    65.38000     Zn( 1.00)
        Cu            19.00    63.54600     Cu( 1.00)

     Starting magnetic structure
     atomic species   magnetization
        S            0.000
        Zn           0.000
        Cu           0.000

      6 Sym. Ops. (no inversion) found

                                    s                        frac. trans.

      isym =  1     identity

 cryst.   s( 1) = (     1          0          0      )
                  (     0          1          0      )
                  (     0          0          1      )

 cart.    s( 1) = (  1.0000000  0.0000000  0.0000000 )
                  (  0.0000000  1.0000000  0.0000000 )
                  (  0.0000000  0.0000000  1.0000000 )

      isym =  2     120 deg rotation - cart. axis [-1,-1,-1]

[...]

      isym =  3     120 deg rotation - cart. axis [1,1,1]

[...]

      isym =  4     inv. 180 deg rotation - cart. axis [1,-1,0]

[...]

      isym =  6     inv. 180 deg rotation - cart. axis [0,1,-1]

 cryst.   s( 6) = (     1          0          0      )
                  (     0          0          1      )
                  (     0          1          0      )

 cart.    s( 6) = (  1.0000000  0.0000000  0.0000000 )
                  (  0.0000000  0.0000000  1.0000000 )
                  (  0.0000000  1.0000000  0.0000000 )

     point group C_3v (3m)
     there are  3 classes
     the character table:

       E     2C3   3s_v
A_1    1.00  1.00  1.00
A_2    1.00  1.00 -1.00
E      2.00 -1.00  0.00

     the symmetry operations in each class and the name of the first element:

     E        1
          identity
     2C3      2    3
          120 deg rotation - cart. axis [-1,-1,-1]
     3s_v     4    5    6
          inv. 180 deg rotation - cart. axis [1,-1,0]

   Cartesian axes

     site n.     atom                  positions (alat units)
         1           Zn  tau(   1) = (   0.0000000   0.0000000   0.0000000  )
         2           Zn  tau(   2) = (   0.0000000   0.2500000   0.2500000  )
         3           Zn  tau(   3) = (   0.2500000   0.0000000   0.2500000  )
         4           Zn  tau(   4) = (   0.2500000   0.2500000   0.0000000  )
         5           S   tau(   5) = (   0.1250000   0.3750000   0.3750000  )
         6           S   tau(   6) = (   0.1250000   0.1250000   0.1250000  )
         7           S   tau(   7) = (   0.3750000   0.3750000   0.1250000  )
         8           S   tau(   8) = (   0.3750000   0.1250000   0.3750000  )
         9           Zn  tau(   9) = (   0.0000000   0.0000000   0.5000000  )
        10           Zn  tau(  10) = (   0.0000000   0.2500000   0.7500000  )
        11           Zn  tau(  11) = (   0.2500000   0.0000000   0.7500000  )
        12           Zn  tau(  12) = (   0.2500000   0.2500000   0.5000000  )
        13           S   tau(  13) = (   0.1250000   0.3750000   0.8750000  )
        14           S   tau(  14) = (   0.1250000   0.1250000   0.6250000  )
        15           S   tau(  15) = (   0.3750000   0.3750000   0.6250000  )
        16           S   tau(  16) = (   0.3750000   0.1250000   0.8750000  )
        17           Zn  tau(  17) = (   0.0000000   0.5000000   0.0000000  )
        18           Zn  tau(  18) = (   0.0000000   0.7500000   0.2500000  )
        19           Zn  tau(  19) = (   0.2500000   0.5000000   0.2500000  )
        20           Zn  tau(  20) = (   0.2500000   0.7500000   0.0000000  )
        21           S   tau(  21) = (   0.1250000   0.8750000   0.3750000  )
        22           S   tau(  22) = (   0.1250000   0.6250000   0.1250000  )
        23           S   tau(  23) = (   0.3750000   0.8750000   0.1250000  )
        24           S   tau(  24) = (   0.3750000   0.6250000   0.3750000  )
        25           Zn  tau(  25) = (   0.0000000   0.5000000   0.5000000  )
        26           Zn  tau(  26) = (   0.0000000   0.7500000   0.7500000  )
        27           Zn  tau(  27) = (   0.2500000   0.5000000   0.7500000  )
        28           Zn  tau(  28) = (   0.2500000   0.7500000   0.5000000  )
        29           S   tau(  29) = (   0.1250000   0.8750000   0.8750000  )
        30           S   tau(  30) = (   0.1250000   0.6250000   0.6250000  )
        31           S   tau(  31) = (   0.3750000   0.8750000   0.6250000  )
        32           S   tau(  32) = (   0.3750000   0.6250000   0.8750000  )
        33           Zn  tau(  33) = (   0.5000000   0.0000000   0.0000000  )
        34           Zn  tau(  34) = (   0.5000000   0.2500000   0.2500000  )
        35           Zn  tau(  35) = (   0.7500000   0.0000000   0.2500000  )
        36           Zn  tau(  36) = (   0.7500000   0.2500000   0.0000000  )
        37           S   tau(  37) = (   0.6250000   0.3750000   0.3750000  )
        38           S   tau(  38) = (   0.6250000   0.1250000   0.1250000  )
        39           S   tau(  39) = (   0.8750000   0.3750000   0.1250000  )
        40           S   tau(  40) = (   0.8750000   0.1250000   0.3750000  )
        41           Zn  tau(  41) = (   0.5000000   0.0000000   0.5000000  )
        42           Zn  tau(  42) = (   0.5000000   0.2500000   0.7500000  )
        43           Zn  tau(  43) = (   0.7500000   0.0000000   0.7500000  )
        44           Zn  tau(  44) = (   0.7500000   0.2500000   0.5000000  )
        45           S   tau(  45) = (   0.6250000   0.3750000   0.8750000  )
        46           S   tau(  46) = (   0.6250000   0.1250000   0.6250000  )
        47           S   tau(  47) = (   0.8750000   0.3750000   0.6250000  )
        48           S   tau(  48) = (   0.8750000   0.1250000   0.8750000  )
        49           Zn  tau(  49) = (   0.5000000   0.5000000   0.0000000  )
        50           Zn  tau(  50) = (   0.5000000   0.7500000   0.2500000  )
        51           Zn  tau(  51) = (   0.7500000   0.5000000   0.2500000  )
        52           Zn  tau(  52) = (   0.7500000   0.7500000   0.0000000  )
        53           S   tau(  53) = (   0.6250000   0.8750000   0.3750000  )
        54           S   tau(  54) = (   0.6250000   0.6250000   0.1250000  )
        55           S   tau(  55) = (   0.8750000   0.8750000   0.1250000  )
        56           S   tau(  56) = (   0.8750000   0.6250000   0.3750000  )
        57           Cu  tau(  57) = (   0.5000000   0.5000000   0.5000000  )
        58           Zn  tau(  58) = (   0.5000000   0.7500000   0.7500000  )
        59           Zn  tau(  59) = (   0.7500000   0.5000000   0.7500000  )
        60           Zn  tau(  60) = (   0.7500000   0.7500000   0.5000000  )
        61           S   tau(  61) = (   0.6250000   0.8750000   0.8750000  )
        62           S   tau(  62) = (   0.8750000   0.8750000   0.6250000  )
        63           S   tau(  63) = (   0.8750000   0.6250000   0.8750000  )

   Crystallographic axes

     site n.     atom                  positions (cryst. coord.)
         1           Zn  tau(   1) = (  0.0000000  0.0000000  0.0000000  )
[...]
     atom  30 (R=0.089)  charge=  4.0015  magn=  0.0000
     atom  31 (R=0.089)  charge=  3.9982  magn=  0.0000
     atom  32 (R=0.089)  charge=  3.9982  magn=  0.0000
     atom  33 (R=0.089)  charge= 10.1800  magn=  0.0000
     atom  34 (R=0.089)  charge= 10.1779  magn= -0.0000
     atom  35 (R=0.089)  charge= 10.1785  magn=  0.0000
     atom  36 (R=0.089)  charge= 10.1785  magn=  0.0000
     atom  37 (R=0.089)  charge=  3.9827  magn=  0.0000
     atom  38 (R=0.089)  charge=  4.0022  magn= -0.0000
     atom  39 (R=0.089)  charge=  4.0025  magn= -0.0000
     atom  40 (R=0.089)  charge=  4.0025  magn= -0.0000
     atom  41 (R=0.089)  charge= 10.1765  magn= -0.0000
     atom  42 (R=0.089)  charge= 10.1776  magn= -0.0000
     atom  43 (R=0.089)  charge= 10.1771  magn= -0.0000
     atom  44 (R=0.089)  charge= 10.1776  magn= -0.0000
     atom  45 (R=0.089)  charge=  3.9982  magn=  0.0000
     atom  46 (R=0.089)  charge=  4.0015  magn=  0.0000
     atom  47 (R=0.089)  charge=  3.9982  magn=  0.0000
     atom  48 (R=0.089)  charge=  4.0022  magn= -0.0000
     atom  49 (R=0.089)  charge= 10.1765  magn= -0.0000
     atom  50 (R=0.089)  charge= 10.1776  magn= -0.0000
     atom  51 (R=0.089)  charge= 10.1776  magn= -0.0000
     atom  52 (R=0.089)  charge= 10.1771  magn= -0.0000
     atom  53 (R=0.089)  charge=  3.9982  magn=  0.0000
     atom  54 (R=0.089)  charge=  4.0015  magn=  0.0000
     atom  55 (R=0.089)  charge=  4.0022  magn= -0.0000
     atom  56 (R=0.089)  charge=  3.9982  magn=  0.0000
     atom  57 (R=0.089)  charge= 17.3937  magn=  0.0000
     atom  58 (R=0.089)  charge= 10.1411  magn= -0.0000
     atom  59 (R=0.089)  charge= 10.1411  magn= -0.0000
     atom  60 (R=0.089)  charge= 10.1411  magn= -0.0000
     atom  61 (R=0.089)  charge=  3.9991  magn= -0.0000
     atom  62 (R=0.089)  charge=  3.9991  magn= -0.0000
     atom  63 (R=0.089)  charge=  3.9991  magn= -0.0000

     End of self-consistent calculation

 ------ SPIN UP ------------

          k = 0.0000 0.0000 0.0000 (269825 PWs)   bands (ev):

  -103.8811 -61.3068 -61.2935 -61.2935  -7.6342  -7.2160  -7.2160  -7.2097
    -7.2097  -7.2042  -7.1702  -7.0174  -7.0174  -7.0171  -7.0039  -6.9808
    -6.9783  -6.9783  -6.9773  -6.9773  -6.9759  -6.9758  -6.9758  -6.8746
    -6.8746  -6.8565  -6.7960  -6.7936  -6.7936  -6.7574  -6.7556  -6.7556
    -6.4743  -6.3319  -6.3319  -3.8746  -3.8732  -3.8732  -3.8342  -3.8336
    -3.8336  -3.8318  -3.8318  -3.8159  -3.8159  -3.8102  -3.8078  -3.8078
    -3.8061  -3.7945  -3.7945  -3.7945  -3.7913  -3.7913  -3.7876  -3.7857
    -3.7857  -3.7785  -3.7768  -3.7768  -3.7741  -3.7696  -3.7674  -3.7674
    -3.7627  -3.7619  -3.7616  -3.7616  -3.7472  -3.7472  -3.7470  -3.7355
    -3.7333  -3.7333  -3.7266  -3.7266  -3.7233  -3.7233  -3.7212  -3.7172
    -3.7172  -3.7124  -3.7085  -3.7085  -3.7007  -3.6988  -3.6988  -3.6942
    -3.6893  -3.6857  -3.6857  -3.6803  -3.6803  -3.6792  -3.6759  -3.6702
    -3.6702  -3.6543  -3.6535  -3.6484  -3.6478  -3.6478  -3.6445  -3.6445
    -3.6374  -3.6374  -3.6352  -3.6314  -3.6314  -3.6282  -3.6282  -3.6276
    -3.6203  -3.6191  -3.6191  -3.6188  -3.6120  -3.6120  -3.6114  -3.6114
    -3.6108  -3.6108  -3.6091  -3.6043  -3.5885  -3.5842  -3.5842  -3.5799
    -3.5799  -3.5688  -3.5666  -3.5666  -3.5662  -3.5496  -3.5496  -3.5443
    -3.5336  -3.5336  -3.5329  -3.5310  -3.5220  -3.5220  -3.5070  -3.5070
    -3.5032  -3.4915  -3.4855  -3.4855  -3.4847  -3.4847  -3.4811  -3.4811
    -3.4811  -3.4656  -3.4632  -3.4632  -3.4592  -3.4435  -3.4435  -3.4205
    -3.4127  -3.4127  -3.4052  -3.3977  -3.3961  -3.3961  -3.2848  -3.2848
    -3.2423  -3.2398  -3.2398  -3.2241  -3.2188  -3.2188  -3.2119  -3.2012
    -3.1958  -3.1958  -3.1404  -3.1404  -3.0935  -3.0393  -3.0167  -3.0167
    -2.9668  -2.9023  -2.9023  -2.8743  -2.8743  -2.8682   0.2173   0.2376
     0.2625   0.2625   0.5905   0.6049   0.6049   0.8147   0.8147   0.8223
     0.8908   0.8908   0.9035   1.0859   1.2049   1.2049   1.2159   1.2159
     1.2572   1.2660   1.2660   1.2742   1.4814   1.4814   1.8914   2.3476
     2.4429   2.4429   2.4870   2.4946   2.4946   2.5102   2.5102   2.5200
     2.5576   2.5576   2.6604   2.6746   2.6778   2.6778   2.6795   2.6934
     2.6934   2.7422   2.7422   2.7778   2.7784   2.7784   2.7910   2.8588
     2.8588   2.9447   3.0015   3.0015   3.1019   3.1633   3.1732   3.1732
     3.4208   3.4208   3.4777   3.6982   3.6982   3.9986   4.0041   4.0041
     4.0112   4.0273   4.0359   4.0359   4.0601   4.0601   4.1252   4.1423
     4.1423   4.2582   4.2582   4.3013   4.3033   4.3061   4.3061   4.3080
     4.3080   4.3148   4.3165   4.3165   4.3184   4.3353   4.3353   4.5046
     4.6028   4.8286   4.8286   4.9986   4.9986   5.1484   5.6889   5.6889
     6.5480   7.7800   8.6074   8.6074   8.6929   8.7514   8.8124   8.8124
     8.9351   8.9351   9.0971   9.4771   9.4807   9.4807   9.5243   9.8329
     9.8329   9.9164   9.9399   9.9399   9.9620   9.9832   9.9832   9.9863
     9.9972   9.9972  10.1560  10.1560  10.1570  10.1785  10.1785  10.2081
    10.2081  10.2337  10.3142  10.6354  10.6354  10.6993  11.0171  11.1134
    11.1134  11.1483  11.1483  11.2786  11.3194  11.3194  11.3324  11.6506
    11.6506  11.6850  11.8160  11.8438  11.8454  11.8455  11.9918  11.9919
    12.0017  12.0073  12.0074

     occupation numbers
     1.0000   1.0000   1.0000   1.0000   1.0000   1.0000   1.0000   1.0000
     1.0000   1.0000   1.0000   1.0000   1.0000   1.0000   1.0000   1.0000
     1.0000   1.0000   1.0000   1.0000   1.0000   1.0000   1.0000   1.0000
     1.0000   1.0000   1.0000   1.0000   1.0000   1.0000   1.0000   1.0000
     1.0000   1.0000   1.0000   1.0000   1.0000   1.0000   1.0000   1.0000
     1.0000   1.0000   1.0000   1.0000   1.0000   1.0000   1.0000   1.0000
     1.0000   1.0000   1.0000   1.0000   1.0000   1.0000   1.0000   1.0000
     1.0000   1.0000   1.0000   1.0000   1.0000   1.0000   1.0000   1.0000
     1.0000   1.0000   1.0000   1.0000   1.0000   1.0000   1.0000   1.0000
     1.0000   1.0000   1.0000   1.0000   1.0000   1.0000   1.0000   1.0000
     1.0000   1.0000   1.0000   1.0000   1.0000   1.0000   1.0000   1.0000
     1.0000   1.0000   1.0000   1.0000   1.0000   1.0000   1.0000   1.0000
     1.0000   1.0000   1.0000   1.0000   1.0000   1.0000   1.0000   1.0000
     1.0000   1.0000   1.0000   1.0000   1.0000   1.0000   1.0000   1.0000
     1.0000   1.0000   1.0000   1.0000   1.0000   1.0000   1.0000   1.0000
     1.0000   1.0000   1.0000   1.0000   1.0000   1.0000   1.0000   1.0000
     1.0000   1.0000   1.0000   1.0000   1.0000   1.0000   1.0000   1.0000
     1.0000   1.0000   1.0000   1.0000   1.0000   1.0000   1.0000   1.0000
     1.0000   1.0000   1.0000   1.0000   1.0000   1.0000   1.0000   1.0000
     1.0000   1.0000   1.0000   1.0000   1.0000   1.0000   1.0000   1.0000
     1.0000   1.0000   1.0000   1.0000   1.0000   1.0000   1.0000   1.0000
     1.0000   1.0000   1.0000   1.0000   1.0000   1.0000   1.0000   1.0000
     1.0000   1.0000   1.0000   1.0000   1.0000   1.0000   1.0000   1.0000
     1.0000   1.0000   1.0000   1.0000   1.0000   1.0000   1.0000   1.0000
     1.0000   1.0000   1.0000   1.0000   1.0000   1.0000   1.0000   1.0000
     1.0000   1.0000   1.0000   1.0000   1.0000   1.0000   1.0000   1.0000
     1.0000   1.0000   1.0000   1.0000   1.0000   1.0000   1.0000   1.0000
     1.0000   1.0000   1.0000   1.0000   1.0000   1.0000   1.0000   1.0000
     1.0000   1.0000   1.0000   1.0000   1.0000   1.0000   1.0000   1.0000
     1.0000   1.0000   1.0000   1.0000   1.0000   1.0000   1.0000   1.0000
     1.0000   1.0000   1.0000   1.0000   1.0000   1.0000   1.0000   1.0000
     1.0000   1.0000   1.0000   1.0000   1.0000   1.0000   1.0000   1.0000
     1.0000   1.0000   1.0000   1.0000   1.0000   1.0000   1.0000   1.0000
     1.0000   1.0000   1.0000   1.0000   1.0000   1.0000   1.0000   1.0000
     1.0000   1.0000   1.0000   1.0000   1.0000   1.0000   1.0000   1.0000
     1.0000   1.0000   1.0000   1.0000   1.0000   1.0000   1.0000   1.0000
     1.0000   0.0000   0.0000   0.0000   0.0000   0.0000   0.0000   0.0000
     0.0000   0.0000   0.0000   0.0000   0.0000   0.0000   0.0000   0.0000
     0.0000   0.0000   0.0000   0.0000   0.0000   0.0000   0.0000   0.0000
     0.0000   0.0000   0.0000   0.0000   0.0000   0.0000   0.0000   0.0000
     0.0000   0.0000   0.0000   0.0000   0.0000   0.0000   0.0000   0.0000
     0.0000   0.0000   0.0000   0.0000   0.0000   0.0000   0.0000   0.0000
     0.0000   0.0000   0.0000   0.0000   0.0000   0.0000   0.0000   0.0000
     0.0000   0.0000   0.0000

[...]

          k =-0.5000-0.5000-0.5000 (269968 PWs)   bands (ev):

[...]

 ------ SPIN DOWN ----------

[...]

          k =-0.2500 0.0000 0.2500 (269929 PWs)   bands (ev):

[...]

          k = 0.2500-0.2500-0.5000 (269988 PWs)   bands (ev):

  -103.8811 -61.3068 -61.2935 -61.2935  -7.4919  -7.4242  -7.2913  -7.2910
    -7.2326  -7.2025  -7.1442  -7.0414  -7.0189  -7.0172  -6.9796  -6.9752
    -6.9657  -6.9585  -6.9203  -6.9002  -6.8986  -6.8925  -6.8815  -6.8671
    -6.8595  -6.8460  -6.8338  -6.8284  -6.8147  -6.8059  -6.8026  -6.8014
    -6.4638  -6.3395  -6.3367  -3.8691  -3.8681  -3.8652  -3.8338  -3.8331
    -3.8301  -3.8288  -3.8277  -3.8250  -3.8201  -3.8161  -3.8137  -3.8122
    -3.8093  -3.8088  -3.8061  -3.7988  -3.7981  -3.7906  -3.7848  -3.7833
    -3.7782  -3.7768  -3.7743  -3.7704  -3.7684  -3.7655  -3.7645  -3.7618
    -3.7581  -3.7555  -3.7540  -3.7493  -3.7466  -3.7457  -3.7426  -3.7385
    -3.7383  -3.7372  -3.7350  -3.7338  -3.7269  -3.7196  -3.7168  -3.7116
    -3.7076  -3.7074  -3.7051  -3.7032  -3.7008  -3.6987  -3.6958  -3.6945
    -3.6934  -3.6886  -3.6860  -3.6836  -3.6821  -3.6806  -3.6766  -3.6720
    -3.6696  -3.6634  -3.6608  -3.6526  -3.6521  -3.6466  -3.6426  -3.6414
    -3.6383  -3.6375  -3.6370  -3.6350  -3.6304  -3.6286  -3.6268  -3.6246
    -3.6202  -3.6174  -3.6151  -3.6133  -3.6126  -3.6101  -3.6068  -3.6060
    -3.6044  -3.6021  -3.5998  -3.5975  -3.5924  -3.5889  -3.5882  -3.5868
    -3.5815  -3.5784  -3.5727  -3.5720  -3.5671  -3.5661  -3.5593  -3.5519
    -3.5405  -3.5371  -3.5321  -3.5164  -3.5146  -3.5119  -3.5107  -3.5063
    -3.5002  -3.4956  -3.4912  -3.4882  -3.4831  -3.4796  -3.4769  -3.4738
    -3.4724  -3.4690  -3.4657  -3.4608  -3.4564  -3.4493  -3.4387  -3.4230
    -3.4170  -3.4125  -3.4104  -3.3952  -3.3939  -3.3925  -3.3311  -3.3130
    -3.3045  -3.2868  -3.2405  -3.2215  -3.1992  -3.1805  -3.1614  -3.1349
    -3.1019  -3.0948  -3.0673  -3.0590  -3.0503  -3.0372  -3.0197  -3.0075
    -2.9975  -2.9850  -2.9777  -2.9684  -2.9570  -2.9451   0.4662   0.5312
     0.6034   0.6254   0.6721   0.6823   0.7019   0.7278   0.7299   0.7442
     0.7626   0.7808   0.8095   0.8359   0.8795   0.9000   0.9537   1.0627
     1.1616   1.2181   1.2521   1.2950   1.3215   1.4255   1.5931   1.8914
     2.2008   2.2615   2.2958   2.3620   2.3775   2.4191   2.4736   2.5605
     2.5691   2.6100   2.6507   2.6583   2.7182   2.7721   2.8297   2.8571
     3.0527   3.0862   3.1500   3.1935   3.2128   3.2649   3.2943   3.3005
     3.3109   3.3172   3.3407   3.3780   3.4113   3.4250   3.4359   3.4470
     3.4547   3.4843   3.4904   3.5083   3.5530   3.5698   3.5997   3.6342
     3.6439   3.7085   3.7228   3.7858   3.8082   3.8323   3.9012   3.9396
     3.9660   3.9801   3.9875   4.0758   4.1492   4.1551   4.1725   4.2134
     4.2694   4.2803   4.3778   4.4537   4.5137   4.5249   4.6008   4.6386
     4.6756   4.7306   4.8072   4.8689   4.9363   4.9382   5.5837   5.6321
     6.9293   8.3492   8.4466   8.8871   8.9449   9.0426   9.0922   9.2334
     9.2976   9.3284   9.3959   9.4862   9.5085   9.5396   9.5624   9.5799
     9.6384   9.6973   9.7131   9.7507   9.7878   9.8254   9.8420   9.8987
     9.9402   9.9642  10.0256  10.0490  10.0645  10.1380  10.1778  10.2784
    10.2952  10.3897  10.4253  10.5767  10.6632  10.7069  10.7251  10.7902
    10.8185  10.9141  11.0132  11.1016  11.1710  11.2202  11.3209  11.3849
    11.4197  11.4417  11.4534  11.4967  11.5300  11.5547  11.5813  11.5995
    11.6197  11.6223  11.6555

     occupation numbers
     1.0000   1.0000   1.0000   1.0000   1.0000   1.0000   1.0000   1.0000
     1.0000   1.0000   1.0000   1.0000   1.0000   1.0000   1.0000   1.0000
     1.0000   1.0000   1.0000   1.0000   1.0000   1.0000   1.0000   1.0000
     1.0000   1.0000   1.0000   1.0000   1.0000   1.0000   1.0000   1.0000
     1.0000   1.0000   1.0000   1.0000   1.0000   1.0000   1.0000   1.0000
     1.0000   1.0000   1.0000   1.0000   1.0000   1.0000   1.0000   1.0000
     1.0000   1.0000   1.0000   1.0000   1.0000   1.0000   1.0000   1.0000
     1.0000   1.0000   1.0000   1.0000   1.0000   1.0000   1.0000   1.0000
     1.0000   1.0000   1.0000   1.0000   1.0000   1.0000   1.0000   1.0000
     1.0000   1.0000   1.0000   1.0000   1.0000   1.0000   1.0000   1.0000
     1.0000   1.0000   1.0000   1.0000   1.0000   1.0000   1.0000   1.0000
     1.0000   1.0000   1.0000   1.0000   1.0000   1.0000   1.0000   1.0000
     1.0000   1.0000   1.0000   1.0000   1.0000   1.0000   1.0000   1.0000
     1.0000   1.0000   1.0000   1.0000   1.0000   1.0000   1.0000   1.0000
     1.0000   1.0000   1.0000   1.0000   1.0000   1.0000   1.0000   1.0000
     1.0000   1.0000   1.0000   1.0000   1.0000   1.0000   1.0000   1.0000
     1.0000   1.0000   1.0000   1.0000   1.0000   1.0000   1.0000   1.0000
     1.0000   1.0000   1.0000   1.0000   1.0000   1.0000   1.0000   1.0000
     1.0000   1.0000   1.0000   1.0000   1.0000   1.0000   1.0000   1.0000
     1.0000   1.0000   1.0000   1.0000   1.0000   1.0000   1.0000   1.0000
     1.0000   1.0000   1.0000   1.0000   1.0000   1.0000   1.0000   1.0000
     1.0000   1.0000   1.0000   1.0000   1.0000   1.0000   1.0000   1.0000
     1.0000   1.0000   1.0000   1.0000   1.0000   1.0000   1.0000   1.0000
     1.0000   1.0000   1.0000   1.0000   1.0000   1.0000   1.0000   1.0000
     1.0000   1.0000   1.0000   1.0000   1.0000   1.0000   1.0000   1.0000
     1.0000   1.0000   1.0000   1.0000   1.0000   1.0000   1.0000   1.0000
     1.0000   1.0000   1.0000   1.0000   1.0000   1.0000   1.0000   1.0000
     1.0000   1.0000   1.0000   1.0000   1.0000   1.0000   1.0000   1.0000
     1.0000   1.0000   1.0000   1.0000   1.0000   1.0000   1.0000   1.0000
     1.0000   1.0000   1.0000   1.0000   1.0000   1.0000   1.0000   1.0000
     1.0000   1.0000   1.0000   1.0000   1.0000   1.0000   1.0000   1.0000
     1.0000   1.0000   1.0000   1.0000   1.0000   1.0000   1.0000   1.0000
     1.0000   1.0000   1.0000   1.0000   1.0000   1.0000   1.0000   1.0000
     1.0000   1.0000   1.0000   1.0000   1.0000   1.0000   1.0000   1.0000
     1.0000   1.0000   1.0000   1.0000   1.0000   1.0000   1.0000   1.0000
     1.0000   1.0000   1.0000   1.0000   1.0000   1.0000   1.0000   1.0000
     1.0000   0.0000   0.0000   0.0000   0.0000   0.0000   0.0000   0.0000
     0.0000   0.0000   0.0000   0.0000   0.0000   0.0000   0.0000   0.0000
     0.0000   0.0000   0.0000   0.0000   0.0000   0.0000   0.0000   0.0000
     0.0000   0.0000   0.0000   0.0000   0.0000   0.0000   0.0000   0.0000
     0.0000   0.0000   0.0000   0.0000   0.0000   0.0000   0.0000   0.0000
     0.0000   0.0000   0.0000   0.0000   0.0000   0.0000   0.0000   0.0000
     0.0000   0.0000   0.0000   0.0000   0.0000   0.0000   0.0000   0.0000
     0.0000   0.0000   0.0000

     the Fermi energy is     7.6059 ev

!    total energy              =  -10100.07628573 Ry
     total all-electron energy =   -139418.605334 Ry
     estimated scf accuracy    <          5.0E-09 Ry
     smearing contrib. (-TS)   =      -0.00000000 Ry
     internal energy E=F+TS    =  -10100.07628573 Ry

     The total energy is F=E-TS. E is the sum of the following terms:
     one-electron contribution =   -3087.40555889 Ry
     hartree contribution      =    2121.11123953 Ry
     xc contribution           =   -1662.43631948 Ry
     ewald contribution        =   -2984.70201120 Ry
     Hubbard energy            =       0.26729281 Ry
     one-center paw contrib.   =   -4486.91092850 Ry
      -> PAW hartree energy AE =     123.90669597 Ry
      -> PAW hartree energy PS =    -123.25989217 Ry
      -> PAW xc energy AE      =    -143.27798399 Ry
      -> PAW xc energy PS      =      47.21449423 Ry
      -> total E_H with PAW    =    2121.75804333 Ry
      -> total E_XC with PAW   =   -1758.49980924 Ry

     total magnetization       =    -0.00 Bohr mag/cell
     absolute magnetization    =     0.00 Bohr mag/cell

     convergence has been achieved in  14 iterations

     Writing all to output data dir ./out/Cu_vac_qn1_U3_unrlxd.save/

     General routines

     Parallel routines

     Hubbard U routines

     PAW routines

   This run was terminated on:  17:18:27  18Jul2024

   JOB DONE.