     Program PWSCF v.7.2 starts on 29Jun2024 at 19: 2:46

     Reading input from 2.Cu_vac_in_ZnS.scf.q0.in

     Current dimensions of program PWSCF are:
     Max number of different atomic species (ntypx) = 10
     Max number of k-points (npk) =  40000
     Max angular momentum in pseudopotentials (lmaxx) =  4
     file S.pbe-n-kjpaw_psl.1.0.0.UPF: wavefunction(s)  3S 3P renormalized
     file Zn.pbe-dnl-kjpaw_psl.1.0.0.UPF: wavefunction(s)  4S 3D renormalized
     file Cu.pbe-spn-kjpaw_psl.1.0.0.UPF: wavefunction(s)  4S 3P 3D renormalized

     K-points division:     npool     =       5
     R & G space division:  proc/nbgrp/npool/nimage =     112
     Subspace diagonalization in iterative solution of the eigenvalue problem:
     one sub-group per band group will be used

     Using Slab Decomposition

     bravais-lattice index     =            1
     lattice parameter (alat)  =      20.5686  a.u.
     unit-cell volume          =    8701.8437 (a.u.)^3
     number of atoms/cell      =           63
     number of atomic types    =            3
     number of electrons       =       577.00
     number of Kohn-Sham states=          347
     kinetic-energy cutoff     =     150.0000  Ry
     charge density cutoff     =     600.0000  Ry
     scf convergence threshold =      1.0E-08
     mixing beta               =       0.7000
     number of iterations used =            8  plain     mixing
     Exchange-correlation= SLA  PW   PBX  PBC
                           (   1   4   3   4   0   0   0)

     celldm(1)=  20.568554  celldm(2)=   0.000000  celldm(3)=   0.000000
     celldm(4)=   0.000000  celldm(5)=   0.000000  celldm(6)=   0.000000

     crystal axes: (cart. coord. in units of alat)
               a(1) = (   1.000000   0.000000   0.000000 )
               a(2) = (   0.000000   1.000000   0.000000 )
               a(3) = (   0.000000   0.000000   1.000000 )

     reciprocal axes: (cart. coord. in units 2 pi/alat)
               b(1) = (  1.000000  0.000000  0.000000 )
               b(2) = (  0.000000  1.000000  0.000000 )
               b(3) = (  0.000000  0.000000  1.000000 )

     PseudoPot. # 1 for S  read from file:
     /arf/home/amuhaymin/pseudo/S.pbe-n-kjpaw_psl.1.0.0.UPF
     MD5 check sum: fb45dfebcf3e72a4e1bd4a866ec2e262
     Pseudo is Projector augmented-wave + core cor, Zval =  6.0
     Generated using &quot;atomic&quot; code by A. Dal Corso  v.6.3
     Shape of augmentation charge: PSQ
     Using radial grid of 1151 points,  6 beta functions with:
                l(1) =   0
                l(2) =   0
                l(3) =   1
                l(4) =   1
                l(5) =   2
                l(6) =   2
     Q(r) pseudized with 0 coefficients

     PseudoPot. # 2 for Zn read from file:
     /arf/home/amuhaymin/pseudo/Zn.pbe-dnl-kjpaw_psl.1.0.0.UPF
     MD5 check sum: c608214d9520ac179f507641260889e3
     Pseudo is Projector augmented-wave + core cor, Zval = 12.0
     Generated using &quot;atomic&quot; code by A. Dal Corso  v.6.2.2
     Shape of augmentation charge: PSQ
     Using radial grid of 1201 points,  6 beta functions with:
                l(1) =   0
                l(2) =   0
                l(3) =   1
                l(4) =   1
                l(5) =   2
                l(6) =   2
     Q(r) pseudized with 0 coefficients

     PseudoPot. # 3 for Cu read from file:
     /arf/home/amuhaymin/pseudo/Cu.pbe-spn-kjpaw_psl.1.0.0.UPF
     MD5 check sum: e7cbaad2f97193e5fe23251a619a52b0
     Pseudo is Projector augmented-wave + core cor, Zval = 19.0
     Generated using &quot;atomic&quot; code by A. Dal Corso  v.6.3
     Shape of augmentation charge: PSQ
     Using radial grid of 1199 points,  6 beta functions with:
                l(1) =   0
                l(2) =   0
                l(3) =   1
                l(4) =   1
                l(5) =   2
                l(6) =   2
     Q(r) pseudized with 0 coefficients

     atomic species   valence    mass     pseudopotential
        S              6.00    32.06500     S ( 1.00)
        Zn            12.00    65.38000     Zn( 1.00)
        Cu            19.00    63.54600     Cu( 1.00)

     Starting magnetic structure
     atomic species   magnetization
        S            0.000
        Zn           0.000
        Cu           0.053

      6 Sym. Ops. (no inversion) found

                                    s                        frac. trans.

      isym =  1     identity

 cryst.   s( 1) = (     1          0          0      )
                  (     0          1          0      )
                  (     0          0          1      )

 cart.    s( 1) = (  1.0000000  0.0000000  0.0000000 )
                  (  0.0000000  1.0000000  0.0000000 )
                  (  0.0000000  0.0000000  1.0000000 )

      isym =  2     120 deg rotation - cart. axis [-1,-1,-1]

[...]

      isym =  3     120 deg rotation - cart. axis [1,1,1]

[...]

      isym =  4     inv. 180 deg rotation - cart. axis [1,-1,0]

[...]

      isym =  6     inv. 180 deg rotation - cart. axis [0,1,-1]

 cryst.   s( 6) = (     1          0          0      )
                  (     0          0          1      )
                  (     0          1          0      )

 cart.    s( 6) = (  1.0000000  0.0000000  0.0000000 )
                  (  0.0000000  0.0000000  1.0000000 )
                  (  0.0000000  1.0000000  0.0000000 )

     point group C_3v (3m)
     there are  3 classes
     the character table:

       E     2C3   3s_v
A_1    1.00  1.00  1.00
A_2    1.00  1.00 -1.00
E      2.00 -1.00  0.00

     the symmetry operations in each class and the name of the first element:

     E        1
          identity
     2C3      2    3
          120 deg rotation - cart. axis [-1,-1,-1]
     3s_v     4    5    6
          inv. 180 deg rotation - cart. axis [1,-1,0]

   Cartesian axes

     site n.     atom                  positions (alat units)
         1           Zn  tau(   1) = (   0.0004603   0.0004603   0.0004603  )
         2           Zn  tau(   2) = (   0.0002282   0.2503947   0.2503947  )
         3           Zn  tau(   3) = (   0.2503947   0.0002282   0.2503947  )
         4           Zn  tau(   4) = (   0.2503947   0.2503947   0.0002282  )
         5           S   tau(   5) = (   0.1252282   0.3751681   0.3751681  )
         6           S   tau(   6) = (   0.1252756   0.1252756   0.1252756  )
         7           S   tau(   7) = (   0.3751681   0.3751681   0.1252282  )
         8           S   tau(   8) = (   0.3751681   0.1252282   0.3751681  )
         9           Zn  tau(   9) = (   0.0007791   0.0007791   0.4997672  )
        10           Zn  tau(  10) = (   0.0003013   0.2508569   0.7500665  )
        11           Zn  tau(  11) = (   0.2508569   0.0003013   0.7500665  )
        12           Zn  tau(  12) = (   0.2517310   0.2517310   0.5020267  )
        13           S   tau(  13) = (   0.1249874   0.3755778   0.8752336  )
        14           S   tau(  14) = (   0.1250440   0.1250440   0.6253612  )
        15           S   tau(  15) = (   0.3760111   0.3760111   0.6255731  )
        16           S   tau(  16) = (   0.3755778   0.1249874   0.8752336  )
        17           Zn  tau(  17) = (   0.0007791   0.4997672   0.0007791  )
        18           Zn  tau(  18) = (   0.0003013   0.7500665   0.2508569  )
        19           Zn  tau(  19) = (   0.2517310   0.5020267   0.2517310  )
        20           Zn  tau(  20) = (   0.2508569   0.7500665   0.0003013  )
        21           S   tau(  21) = (   0.1249874   0.8752336   0.3755778  )
        22           S   tau(  22) = (   0.1250440   0.6253612   0.1250440  )
        23           S   tau(  23) = (   0.3755778   0.8752336   0.1249874  )
        24           S   tau(  24) = (   0.3760111   0.6255731   0.3760111  )
        25           Zn  tau(  25) = (   0.0012044   0.5001362   0.5001362  )
        26           Zn  tau(  26) = (   0.0022364   0.7499627   0.7499627  )
        27           Zn  tau(  27) = (   0.2508680   0.4980781   0.7477441  )
        28           Zn  tau(  28) = (   0.2508680   0.7477441   0.4980781  )
        29           S   tau(  29) = (   0.1258189   0.8752482   0.8752482  )
        30           S   tau(  30) = (   0.1253832   0.6250986   0.6250986  )
        31           S   tau(  31) = (   0.3763850   0.8735734   0.6241307  )
        32           S   tau(  32) = (   0.3763850   0.6241307   0.8735734  )
        33           Zn  tau(  33) = (   0.4997672   0.0007791   0.0007791  )
        34           Zn  tau(  34) = (   0.5020267   0.2517310   0.2517310  )
        35           Zn  tau(  35) = (   0.7500665   0.0003013   0.2508569  )
        36           Zn  tau(  36) = (   0.7500665   0.2508569   0.0003013  )
        37           S   tau(  37) = (   0.6255731   0.3760111   0.3760111  )
        38           S   tau(  38) = (   0.6253612   0.1250440   0.1250440  )
        39           S   tau(  39) = (   0.8752336   0.3755778   0.1249874  )
        40           S   tau(  40) = (   0.8752336   0.1249874   0.3755778  )
        41           Zn  tau(  41) = (   0.5001362   0.0012044   0.5001362  )
        42           Zn  tau(  42) = (   0.4980781   0.2508680   0.7477441  )
        43           Zn  tau(  43) = (   0.7499627   0.0022364   0.7499627  )
        44           Zn  tau(  44) = (   0.7477441   0.2508680   0.4980781  )
        45           S   tau(  45) = (   0.6241307   0.3763850   0.8735734  )
        46           S   tau(  46) = (   0.6250986   0.1253832   0.6250986  )
        47           S   tau(  47) = (   0.8735734   0.3763850   0.6241307  )
        48           S   tau(  48) = (   0.8752482   0.1258189   0.8752482  )
        49           Zn  tau(  49) = (   0.5001362   0.5001362   0.0012044  )
        50           Zn  tau(  50) = (   0.4980781   0.7477441   0.2508680  )
        51           Zn  tau(  51) = (   0.7477441   0.4980781   0.2508680  )
        52           Zn  tau(  52) = (   0.7499627   0.7499627   0.0022364  )
        53           S   tau(  53) = (   0.6241307   0.8735734   0.3763850  )
        54           S   tau(  54) = (   0.6250986   0.6250986   0.1253832  )
        55           S   tau(  55) = (   0.8752482   0.8752482   0.1258189  )
        56           S   tau(  56) = (   0.8735734   0.6241307   0.3763850  )
        57           Cu  tau(  57) = (   0.4745337   0.4745337   0.4745337  )
        58           Zn  tau(  58) = (   0.4974591   0.7556402   0.7556402  )
        59           Zn  tau(  59) = (   0.7556402   0.4974591   0.7556402  )
        60           Zn  tau(  60) = (   0.7556402   0.7556402   0.4974591  )
        61           S   tau(  61) = (   0.6272504   0.8755799   0.8755799  )
        62           S   tau(  62) = (   0.8755799   0.8755799   0.6272504  )
        63           S   tau(  63) = (   0.8755799   0.6272504   0.8755799  )

   Crystallographic axes

     site n.     atom                  positions (cryst. coord.)
         1           Zn  tau(   1) = (  0.0004603  0.0004603  0.0004603  )
         2           Zn  tau(   2) = (  0.0002282  0.2503947  0.2503947  )
         3           Zn  tau(   3) = (  0.2503947  0.0002282  0.2503947  )
         4           Zn  tau(   4) = (  0.2503947  0.2503947  0.0002282  )
[...]
     atom  28 (R=0.088)  charge= 10.0994  magn=  0.0000
     atom  29 (R=0.085)  charge=  3.6349  magn=  0.0010
     atom  30 (R=0.085)  charge=  3.6373  magn= -0.0000
     atom  31 (R=0.085)  charge=  3.6304  magn=  0.0112
     atom  32 (R=0.085)  charge=  3.6304  magn=  0.0112
     atom  33 (R=0.088)  charge= 10.0970  magn=  0.0028
     atom  34 (R=0.088)  charge= 10.0943  magn=  0.0010
     atom  35 (R=0.088)  charge= 10.0929  magn=  0.0023
     atom  36 (R=0.088)  charge= 10.0929  magn=  0.0023
     atom  37 (R=0.085)  charge=  3.6478  magn=  0.0030
     atom  38 (R=0.085)  charge=  3.6332  magn=  0.0070
     atom  39 (R=0.085)  charge=  3.6353  magn=  0.0007
     atom  40 (R=0.085)  charge=  3.6353  magn=  0.0007
     atom  41 (R=0.088)  charge= 10.0972  magn= -0.0001
     atom  42 (R=0.088)  charge= 10.0994  magn=  0.0000
     atom  43 (R=0.088)  charge= 10.0987  magn= -0.0001
     atom  44 (R=0.088)  charge= 10.0994  magn=  0.0000
     atom  45 (R=0.085)  charge=  3.6304  magn=  0.0112
     atom  46 (R=0.085)  charge=  3.6373  magn= -0.0000
     atom  47 (R=0.085)  charge=  3.6304  magn=  0.0112
     atom  48 (R=0.085)  charge=  3.6349  magn=  0.0010
     atom  49 (R=0.088)  charge= 10.0972  magn= -0.0001
     atom  50 (R=0.088)  charge= 10.0994  magn=  0.0000
     atom  51 (R=0.088)  charge= 10.0994  magn=  0.0000
     atom  52 (R=0.088)  charge= 10.0987  magn= -0.0001
     atom  53 (R=0.085)  charge=  3.6304  magn=  0.0112
     atom  54 (R=0.085)  charge=  3.6373  magn= -0.0000
     atom  55 (R=0.085)  charge=  3.6349  magn=  0.0010
     atom  56 (R=0.085)  charge=  3.6304  magn=  0.0112
     atom  57 (R=0.085)  charge= 17.1897  magn=  0.0112
     atom  58 (R=0.088)  charge= 10.0775  magn=  0.0329
     atom  59 (R=0.088)  charge= 10.0775  magn=  0.0329
     atom  60 (R=0.088)  charge= 10.0775  magn=  0.0329
     atom  61 (R=0.085)  charge=  3.6343  magn=  0.0170
     atom  62 (R=0.085)  charge=  3.6343  magn=  0.0170
     atom  63 (R=0.085)  charge=  3.6343  magn=  0.0170

     End of self-consistent calculation

 ------ SPIN UP ------------

          k = 0.0000 0.0000 0.0000 (269825 PWs)   bands (ev):

  -104.9136 -62.3445 -62.2999 -62.2999  -7.6076  -7.1115  -7.1115  -7.0873
    -7.0809  -7.0809  -7.0117  -6.8295  -6.8295  -6.8128  -6.7839  -6.7839
    -6.7803  -6.7572  -6.7572  -6.7437  -6.7437  -6.7343  -6.7313  -6.6842
    -6.6842  -6.6752  -6.5204  -6.4887  -6.4887  -6.4512  -6.4216  -6.4188
    -6.4188  -6.3495  -6.3495  -0.9208  -0.9208  -0.9208  -0.9010  -0.8833
    -0.8833  -0.8643  -0.8643  -0.8507  -0.8477  -0.8477  -0.8432  -0.8296
    -0.8114  -0.8114  -0.7791  -0.7791  -0.7675  -0.7633  -0.7523  -0.7523
    -0.7437  -0.7437  -0.7409  -0.7321  -0.7321  -0.7262  -0.7238  -0.7238
    -0.7201  -0.7201  -0.7180  -0.7180  -0.7168  -0.7066  -0.7066  -0.7061
    -0.7009  -0.7009  -0.6996  -0.6976  -0.6947  -0.6921  -0.6921  -0.6873
    -0.6801  -0.6773  -0.6768  -0.6768  -0.6720  -0.6720  -0.6657  -0.6657
    -0.6600  -0.6480  -0.6423  -0.6423  -0.6354  -0.6237  -0.6237  -0.5965
    -0.5965  -0.5936  -0.5919  -0.5699  -0.5699  -0.5665  -0.5611  -0.5611
    -0.5589  -0.5442  -0.5442  -0.5379  -0.5379  -0.5226  -0.5226  -0.5204
    -0.5125  -0.5125  -0.5109  -0.5027  -0.4923  -0.4923  -0.4809  -0.4809
    -0.4793  -0.4722  -0.4670  -0.4670  -0.4376  -0.4144  -0.4144  -0.4077
    -0.4077  -0.4056  -0.4024  -0.4014  -0.4014  -0.3987  -0.3987  -0.3915
    -0.3863  -0.3837  -0.3837  -0.3780  -0.3766  -0.3766  -0.3655  -0.3613
    -0.3613  -0.3582  -0.3474  -0.3474  -0.3433  -0.3424  -0.3424  -0.3384
    -0.3325  -0.3325  -0.3204  -0.3204  -0.3141  -0.3131  -0.3131  -0.3118
    -0.3118  -0.3101  -0.2909  -0.2909  -0.2828  -0.2805  -0.2800  -0.2800
    -0.2735  -0.2602  -0.2602  -0.2557  -0.2528  -0.2528  -0.2397  -0.2397
    -0.2336  -0.2331  -0.1666  -0.1666  -0.1560  -0.1560  -0.1530  -0.1289
    -0.0330  -0.0017  -0.0017   0.0180   0.0321   0.0321   0.1758   0.3020
     0.3092   0.3092   0.8711   0.8711   0.8939   0.9130   0.9298   0.9298
     0.9874   0.9874   1.0612   1.2633   1.4117   1.4117   1.4818   1.4818
     1.4945   1.5032   1.5240   1.5240   1.6629   1.6629   1.9285   2.6092
     2.6092   2.6534   2.6866   2.6866   2.7169   2.7252   2.7252   2.7262
     2.7433   2.7566   2.7566   2.7970   2.8113   2.8113   2.8795   2.8795
     2.8871   2.9052   2.9052   2.9220   2.9245   2.9245   2.9573   2.9850
     2.9855   2.9855   3.1088   3.1088   3.1584   3.2377   3.2556   3.2556
     3.5591   3.5591   3.6617   3.8211   3.8211   4.1612   4.1612   4.1713
     4.1734   4.1907   4.1907   4.1951   4.2629   4.2629   4.3164   4.3789
     4.3789   4.3869   4.3869   4.4623   4.4623   4.4652   4.4870   4.4976
     4.4976   4.5232   4.5232   4.5294   4.5332   4.5557   4.5557   4.5850
     5.0240   5.1666   5.1666   5.2527   5.2527   5.3179   5.9653   5.9653
     6.4381   7.7132   8.4866   8.4866   8.7101   8.7558   8.7935   8.7935
     8.9570   8.9570   9.0729   9.5081   9.5081   9.5130   9.7277   9.8534
     9.8534   9.9152   9.9181   9.9181   9.9731   9.9731   9.9854  10.0013
    10.0030  10.0030  10.1389  10.1389  10.1477  10.1529  10.1760  10.1760
    10.2127  10.2127  10.3471  10.6379  10.6463  10.6463  11.0538  11.1381
    11.1381  11.2233  11.2233  11.2996  11.3149  11.3149  11.3726  11.6835
    11.6835  11.7168  11.8256  11.8256  11.8394  11.8731  11.9885  12.0085
    12.0112  12.0137  12.0144

     occupation numbers
     1.0000   1.0000   1.0000   1.0000   1.0000   1.0000   1.0000   1.0000
     1.0000   1.0000   1.0000   1.0000   1.0000   1.0000   1.0000   1.0000
     1.0000   1.0000   1.0000   1.0000   1.0000   1.0000   1.0000   1.0000
     1.0000   1.0000   1.0000   1.0000   1.0000   1.0000   1.0000   1.0000
     1.0000   1.0000   1.0000   1.0000   1.0000   1.0000   1.0000   1.0000
     1.0000   1.0000   1.0000   1.0000   1.0000   1.0000   1.0000   1.0000
     1.0000   1.0000   1.0000   1.0000   1.0000   1.0000   1.0000   1.0000
     1.0000   1.0000   1.0000   1.0000   1.0000   1.0000   1.0000   1.0000
     1.0000   1.0000   1.0000   1.0000   1.0000   1.0000   1.0000   1.0000
     1.0000   1.0000   1.0000   1.0000   1.0000   1.0000   1.0000   1.0000
     1.0000   1.0000   1.0000   1.0000   1.0000   1.0000   1.0000   1.0000
     1.0000   1.0000   1.0000   1.0000   1.0000   1.0000   1.0000   1.0000
     1.0000   1.0000   1.0000   1.0000   1.0000   1.0000   1.0000   1.0000
     1.0000   1.0000   1.0000   1.0000   1.0000   1.0000   1.0000   1.0000
     1.0000   1.0000   1.0000   1.0000   1.0000   1.0000   1.0000   1.0000
     1.0000   1.0000   1.0000   1.0000   1.0000   1.0000   1.0000   1.0000
     1.0000   1.0000   1.0000   1.0000   1.0000   1.0000   1.0000   1.0000
     1.0000   1.0000   1.0000   1.0000   1.0000   1.0000   1.0000   1.0000
     1.0000   1.0000   1.0000   1.0000   1.0000   1.0000   1.0000   1.0000
     1.0000   1.0000   1.0000   1.0000   1.0000   1.0000   1.0000   1.0000
     1.0000   1.0000   1.0000   1.0000   1.0000   1.0000   1.0000   1.0000
     1.0000   1.0000   1.0000   1.0000   1.0000   1.0000   1.0000   1.0000
     1.0000   1.0000   1.0000   1.0000   1.0000   1.0000   1.0000   1.0000
     1.0000   1.0000   1.0000   1.0000   1.0000   1.0000   1.0000   1.0000
     1.0000   1.0000   1.0000   1.0000   1.0000   1.0000   1.0000   1.0000
     1.0000   1.0000   1.0000   1.0000   1.0000   1.0000   1.0000   1.0000
     1.0000   1.0000   1.0000   1.0000   1.0000   1.0000   1.0000   1.0000
     1.0000   1.0000   1.0000   1.0000   1.0000   1.0000   1.0000   1.0000
     1.0000   1.0000   1.0000   1.0000   1.0000   1.0000   1.0000   1.0000
     1.0000   1.0000   1.0000   1.0000   1.0000   1.0000   1.0000   1.0000
     1.0000   1.0000   1.0000   1.0000   1.0000   1.0000   1.0000   1.0000
     1.0000   1.0000   1.0000   1.0000   1.0000   1.0000   1.0000   1.0000
     1.0000   1.0000   1.0000   1.0000   1.0000   1.0000   1.0000   1.0000
     1.0000   1.0000   1.0000   1.0000   1.0000   1.0000   1.0000   1.0000
     1.0000   1.0000   1.0000   1.0000   1.0000   1.0000   1.0000   1.0000
     1.0000   1.0000   1.0000   1.0000   1.0000   1.0000   1.0000   1.0000
     1.0000   0.0000   0.0000   0.0000   0.0000   0.0000   0.0000   0.0000
     0.0000   0.0000   0.0000   0.0000   0.0000   0.0000   0.0000   0.0000
     0.0000   0.0000   0.0000   0.0000   0.0000   0.0000   0.0000   0.0000
     0.0000   0.0000   0.0000   0.0000   0.0000   0.0000   0.0000   0.0000
     0.0000   0.0000   0.0000   0.0000   0.0000   0.0000   0.0000   0.0000
     0.0000   0.0000   0.0000   0.0000   0.0000   0.0000   0.0000   0.0000
     0.0000   0.0000   0.0000   0.0000   0.0000   0.0000   0.0000   0.0000
     0.0000   0.0000   0.0000

[...]

          k =-0.5000-0.5000-0.5000 (269968 PWs)   bands (ev):

[...]

 ------ SPIN DOWN ----------

[...]

          k =-0.2500 0.0000 0.2500 (269929 PWs)   bands (ev):

[...]

          k = 0.2500-0.2500-0.5000 (269988 PWs)   bands (ev):

  -104.9005 -62.3235 -62.2913 -62.2913  -7.4100  -7.3676  -7.1715  -7.1596
    -7.1355  -7.0935  -6.9789  -6.9241  -6.8074  -6.7831  -6.7730  -6.7437
    -6.7330  -6.6887  -6.6860  -6.6650  -6.6434  -6.6206  -6.6151  -6.5956
    -6.5825  -6.5650  -6.5516  -6.5313  -6.5203  -6.5057  -6.5002  -6.4819
    -6.4607  -6.4142  -6.3889  -0.8881  -0.8762  -0.8708  -0.8612  -0.8560
    -0.8523  -0.8461  -0.8286  -0.8275  -0.8179  -0.8124  -0.8037  -0.7996
    -0.7982  -0.7944  -0.7924  -0.7908  -0.7830  -0.7761  -0.7732  -0.7690
    -0.7664  -0.7643  -0.7577  -0.7548  -0.7533  -0.7497  -0.7470  -0.7441
    -0.7429  -0.7385  -0.7368  -0.7357  -0.7310  -0.7240  -0.7202  -0.7178
    -0.7164  -0.7094  -0.7078  -0.7070  -0.7030  -0.6960  -0.6939  -0.6883
    -0.6834  -0.6799  -0.6768  -0.6696  -0.6617  -0.6592  -0.6581  -0.6473
    -0.6440  -0.6394  -0.6360  -0.6287  -0.6270  -0.6231  -0.6168  -0.6082
    -0.6009  -0.5990  -0.5937  -0.5914  -0.5845  -0.5807  -0.5765  -0.5715
    -0.5696  -0.5568  -0.5525  -0.5496  -0.5357  -0.5337  -0.5242  -0.5166
    -0.5146  -0.5082  -0.5031  -0.4976  -0.4909  -0.4857  -0.4837  -0.4706
    -0.4635  -0.4556  -0.4499  -0.4460  -0.4380  -0.4365  -0.4250  -0.4220
    -0.4191  -0.4168  -0.4072  -0.3950  -0.3885  -0.3833  -0.3812  -0.3739
    -0.3714  -0.3684  -0.3641  -0.3594  -0.3580  -0.3552  -0.3538  -0.3515
    -0.3500  -0.3482  -0.3448  -0.3419  -0.3414  -0.3380  -0.3357  -0.3314
    -0.3274  -0.3183  -0.3161  -0.3120  -0.3089  -0.3049  -0.3035  -0.2997
    -0.2960  -0.2919  -0.2864  -0.2800  -0.2781  -0.2744  -0.2688  -0.2632
    -0.2594  -0.2557  -0.2542  -0.2494  -0.2447  -0.2403  -0.2336  -0.2259
    -0.2215  -0.1781  -0.1730  -0.1686  -0.1469  -0.1354  -0.1170  -0.1015
    -0.1005  -0.0938  -0.0819  -0.0614  -0.0536  -0.0414   0.5457   0.5892
     0.7474   0.7794   0.8250   0.8318   0.8635   0.8743   0.9230   0.9448
     0.9837   0.9887   1.0100   1.0222   1.0349   1.0647   1.1609   1.3639
     1.4025   1.4927   1.5368   1.5796   1.6302   1.6726   1.7932   1.8953
     2.4450   2.5126   2.5517   2.5548   2.5683   2.5909   2.6351   2.6812
     2.7297   2.7747   2.7816   2.8031   2.8479   2.9163   2.9686   3.0329
     3.1564   3.1945   3.2871   3.3337   3.3624   3.3910   3.4373   3.4510
     3.4782   3.4806   3.4853   3.5137   3.5521   3.5694   3.6001   3.6289
     3.6364   3.6459   3.6837   3.6886   3.6991   3.7312   3.7545   3.7673
     3.7792   3.8876   3.9100   3.9593   3.9679   4.0079   4.0631   4.0803
     4.1607   4.1667   4.1871   4.2590   4.2919   4.3531   4.3617   4.3810
     4.4350   4.5109   4.6633   4.7225   4.7411   4.7704   4.8497   4.8816
     4.9399   4.9776   5.0114   5.1236   5.2666   5.2774   5.8789   5.9150
     7.3287   8.3891   8.4964   8.9327   8.9544   9.0678   9.1164   9.2850
     9.3366   9.3608   9.4261   9.4696   9.5680   9.5873   9.6071   9.6320
     9.6824   9.7261   9.7494   9.7667   9.7905   9.8466   9.8725   9.9205
     9.9389   9.9715  10.0531  10.0663  10.0922  10.1770  10.2177  10.3199
    10.3467  10.4221  10.4852  10.6236  10.6622  10.7450  10.7989  10.8206
    10.8719  10.9419  10.9950  11.1005  11.2195  11.2687  11.3261  11.3966
    11.4472  11.4714  11.4870  11.5027  11.5598  11.5684  11.6050  11.6109
    11.6217  11.6390  11.6693

     occupation numbers
     1.0000   1.0000   1.0000   1.0000   1.0000   1.0000   1.0000   1.0000
     1.0000   1.0000   1.0000   1.0000   1.0000   1.0000   1.0000   1.0000
     1.0000   1.0000   1.0000   1.0000   1.0000   1.0000   1.0000   1.0000
     1.0000   1.0000   1.0000   1.0000   1.0000   1.0000   1.0000   1.0000
     1.0000   1.0000   1.0000   1.0000   1.0000   1.0000   1.0000   1.0000
     1.0000   1.0000   1.0000   1.0000   1.0000   1.0000   1.0000   1.0000
     1.0000   1.0000   1.0000   1.0000   1.0000   1.0000   1.0000   1.0000
     1.0000   1.0000   1.0000   1.0000   1.0000   1.0000   1.0000   1.0000
     1.0000   1.0000   1.0000   1.0000   1.0000   1.0000   1.0000   1.0000
     1.0000   1.0000   1.0000   1.0000   1.0000   1.0000   1.0000   1.0000
     1.0000   1.0000   1.0000   1.0000   1.0000   1.0000   1.0000   1.0000
     1.0000   1.0000   1.0000   1.0000   1.0000   1.0000   1.0000   1.0000
     1.0000   1.0000   1.0000   1.0000   1.0000   1.0000   1.0000   1.0000
     1.0000   1.0000   1.0000   1.0000   1.0000   1.0000   1.0000   1.0000
     1.0000   1.0000   1.0000   1.0000   1.0000   1.0000   1.0000   1.0000
     1.0000   1.0000   1.0000   1.0000   1.0000   1.0000   1.0000   1.0000
     1.0000   1.0000   1.0000   1.0000   1.0000   1.0000   1.0000   1.0000
     1.0000   1.0000   1.0000   1.0000   1.0000   1.0000   1.0000   1.0000
     1.0000   1.0000   1.0000   1.0000   1.0000   1.0000   1.0000   1.0000
     1.0000   1.0000   1.0000   1.0000   1.0000   1.0000   1.0000   1.0000
     1.0000   1.0000   1.0000   1.0000   1.0000   1.0000   1.0000   1.0000
     1.0000   1.0000   1.0000   1.0000   1.0000   1.0000   1.0000   1.0000
     1.0000   1.0000   1.0000   1.0000   1.0000   1.0000   1.0000   1.0000
     1.0000   1.0000   1.0000   1.0000   1.0000   1.0000   1.0000   1.0000
     1.0000   1.0000   1.0000   1.0000   1.0000   1.0000   1.0000   1.0000
     1.0000   1.0000   1.0000   1.0000   1.0000   1.0000   1.0000   1.0000
     1.0000   1.0000   1.0000   1.0000   1.0000   1.0000   1.0000   1.0000
     1.0000   1.0000   1.0000   1.0000   1.0000   1.0000   1.0000   1.0000
     1.0000   1.0000   1.0000   1.0000   1.0000   1.0000   1.0000   1.0000
     1.0000   1.0000   1.0000   1.0000   1.0000   1.0000   1.0000   1.0000
     1.0000   1.0000   1.0000   1.0000   1.0000   1.0000   1.0000   1.0000
     1.0000   1.0000   1.0000   1.0000   1.0000   1.0000   1.0000   1.0000
     1.0000   1.0000   1.0000   1.0000   1.0000   1.0000   1.0000   1.0000
     1.0000   1.0000   1.0000   1.0000   1.0000   1.0000   1.0000   1.0000
     1.0000   1.0000   1.0000   1.0000   1.0000   1.0000   1.0000   1.0000
     1.0000   1.0000   1.0000   1.0000   1.0000   1.0000   1.0000   1.0000
     0.0000   0.0000   0.0000   0.0000   0.0000   0.0000   0.0000   0.0000
     0.0000   0.0000   0.0000   0.0000   0.0000   0.0000   0.0000   0.0000
     0.0000   0.0000   0.0000   0.0000   0.0000   0.0000   0.0000   0.0000
     0.0000   0.0000   0.0000   0.0000   0.0000   0.0000   0.0000   0.0000
     0.0000   0.0000   0.0000   0.0000   0.0000   0.0000   0.0000   0.0000
     0.0000   0.0000   0.0000   0.0000   0.0000   0.0000   0.0000   0.0000
     0.0000   0.0000   0.0000   0.0000   0.0000   0.0000   0.0000   0.0000
     0.0000   0.0000   0.0000

     the Fermi energy is     6.8337 ev

!    total energy              =  -10100.91903786 Ry
     total all-electron energy =   -139419.448086 Ry
     estimated scf accuracy    <          7.4E-09 Ry
     smearing contrib. (-TS)   =      -0.00000004 Ry
     internal energy E=F+TS    =  -10100.91903782 Ry

     The total energy is F=E-TS. E is the sum of the following terms:
     one-electron contribution =   -3115.25816847 Ry
     hartree contribution      =    2130.01679600 Ry
     xc contribution           =   -1660.52786019 Ry
     ewald contribution        =   -2968.17474516 Ry
     one-center paw contrib.   =   -4486.97506000 Ry
      -> PAW hartree energy AE =     123.18488193 Ry
      -> PAW hartree energy PS =    -122.54273042 Ry
      -> PAW xc energy AE      =    -143.20300019 Ry
      -> PAW xc energy PS      =      47.14165954 Ry
      -> total E_H with PAW    =    2130.65894751 Ry
      -> total E_XC with PAW   =   -1756.58920083 Ry

     total magnetization       =     1.00 Bohr mag/cell
     absolute magnetization    =     1.06 Bohr mag/cell

     convergence has been achieved in  16 iterations

     Writing all to output data dir ./out/Cu_vac_q0.save/

     General routines

     Parallel routines

     PAW routines

   This run was terminated on:  19:11:41  29Jun2024

   JOB DONE.