     Program PWSCF v.7.2 starts on  5Jul2024 at 10:40: 1

     Reading input from 2.Ni_in_ZnS.scf.qp1.in

     Current dimensions of program PWSCF are:
     Max number of different atomic species (ntypx) = 10
     Max number of k-points (npk) =  40000
     Max angular momentum in pseudopotentials (lmaxx) =  4
     file S.pbe-n-kjpaw_psl.1.0.0.UPF: wavefunction(s)  3S 3P renormalized
     file Zn.pbe-dnl-kjpaw_psl.1.0.0.UPF: wavefunction(s)  4S 3D renormalized
     file Ni.pbe-spn-kjpaw_psl.1.0.0.UPF: wavefunction(s)  3P 3D renormalized

     K-points division:     npool     =      10
     R & G space division:  proc/nbgrp/npool/nimage =     112
     Subspace diagonalization in iterative solution of the eigenvalue problem:
     one sub-group per band group will be used

     Using Slab Decomposition

     bravais-lattice index     =            1
     lattice parameter (alat)  =      20.5686  a.u.
     unit-cell volume          =    8701.8437 (a.u.)^3
     number of atoms/cell      =           64
     number of atomic types    =            3
     number of electrons       =       581.00
     number of Kohn-Sham states=          349
     kinetic-energy cutoff     =     150.0000  Ry
     charge density cutoff     =     600.0000  Ry
     scf convergence threshold =      1.0E-08
     mixing beta               =       0.7000
     number of iterations used =            8  plain     mixing
     Exchange-correlation= SLA  PW   PBX  PBC
                           (   1   4   3   4   0   0   0)

     celldm(1)=  20.568554  celldm(2)=   0.000000  celldm(3)=   0.000000
     celldm(4)=   0.000000  celldm(5)=   0.000000  celldm(6)=   0.000000

     crystal axes: (cart. coord. in units of alat)
               a(1) = (   1.000000   0.000000   0.000000 )
               a(2) = (   0.000000   1.000000   0.000000 )
               a(3) = (   0.000000   0.000000   1.000000 )

     reciprocal axes: (cart. coord. in units 2 pi/alat)
               b(1) = (  1.000000  0.000000  0.000000 )
               b(2) = (  0.000000  1.000000  0.000000 )
               b(3) = (  0.000000  0.000000  1.000000 )

     PseudoPot. # 1 for S  read from file:
     /arf/home/amuhaymin/pseudo/S.pbe-n-kjpaw_psl.1.0.0.UPF
     MD5 check sum: fb45dfebcf3e72a4e1bd4a866ec2e262
     Pseudo is Projector augmented-wave + core cor, Zval =  6.0
     Generated using &quot;atomic&quot; code by A. Dal Corso  v.6.3
     Shape of augmentation charge: PSQ
     Using radial grid of 1151 points,  6 beta functions with:
                l(1) =   0
                l(2) =   0
                l(3) =   1
                l(4) =   1
                l(5) =   2
                l(6) =   2
     Q(r) pseudized with 0 coefficients

     PseudoPot. # 2 for Zn read from file:
     /arf/home/amuhaymin/pseudo/Zn.pbe-dnl-kjpaw_psl.1.0.0.UPF
     MD5 check sum: c608214d9520ac179f507641260889e3
     Pseudo is Projector augmented-wave + core cor, Zval = 12.0
     Generated using &quot;atomic&quot; code by A. Dal Corso  v.6.2.2
     Shape of augmentation charge: PSQ
     Using radial grid of 1201 points,  6 beta functions with:
                l(1) =   0
                l(2) =   0
                l(3) =   1
                l(4) =   1
                l(5) =   2
                l(6) =   2
     Q(r) pseudized with 0 coefficients

     PseudoPot. # 3 for Ni read from file:
     /arf/home/amuhaymin/pseudo/Ni.pbe-spn-kjpaw_psl.1.0.0.UPF
     MD5 check sum: 6e86b733589c3ad8389697b807d86aa7
     Pseudo is Projector augmented-wave + core cor, Zval = 18.0
     Generated using &quot;atomic&quot; code by A. Dal Corso  v.6.3
     Shape of augmentation charge: PSQ
     Using radial grid of 1195 points,  6 beta functions with:
                l(1) =   0
                l(2) =   0
                l(3) =   1
                l(4) =   1
                l(5) =   2
                l(6) =   2
     Q(r) pseudized with 0 coefficients

     atomic species   valence    mass     pseudopotential
        S              6.00    32.06500     S ( 1.00)
        Zn            12.00    65.38000     Zn( 1.00)
        Ni            18.00    63.54600     Ni( 1.00)

     Starting magnetic structure
     atomic species   magnetization
        S            0.000
        Zn           0.000
        Ni           0.167

     24 Sym. Ops. (no inversion) found

                                    s                        frac. trans.

      isym =  1     identity

 cryst.   s( 1) = (     1          0          0      )
                  (     0          1          0      )
                  (     0          0          1      )

 cart.    s( 1) = (  1.0000000  0.0000000  0.0000000 )
                  (  0.0000000  1.0000000  0.0000000 )
                  (  0.0000000  0.0000000  1.0000000 )

      isym =  2     180 deg rotation - cart. axis [0,0,1]

[...]

 cryst.   s( 9) = (     0          1          0      )
                  (     0          0          1      )
                  (     1          0          0      )

 cart.    s( 9) = (  0.0000000  0.0000000  1.0000000 )
                  (  1.0000000  0.0000000  0.0000000 )
                  (  0.0000000  1.0000000  0.0000000 )

[...]

 cryst.   s(10) = (     0         -1          0      )
                  (     0          0         -1      )
                  (     1          0          0      )

 cart.    s(10) = (  0.0000000  0.0000000  1.0000000 )
                  ( -1.0000000  0.0000000  0.0000000 )
                  (  0.0000000 -1.0000000  0.0000000 )

[...]

      isym = 12     120 deg rotation - cart. axis [-1,-1,1]

[...]

      isym = 13     inv. 180 deg rotation - cart. axis [1,1,0]

[...]

      isym = 24     inv.  90 deg rotation - cart. axis [1,0,0]

 cryst.   s(24) = (    -1          0          0      )
                  (     0          0         -1      )
                  (     0          1          0      )

 cart.    s(24) = ( -1.0000000  0.0000000  0.0000000 )
                  (  0.0000000  0.0000000  1.0000000 )
                  (  0.0000000 -1.0000000  0.0000000 )

     point group T_d (-43m)
     there are  5 classes
     the character table:

       E     8C3   3C2   6S4   6s_d
A_1    1.00  1.00  1.00  1.00  1.00
A_2    1.00  1.00  1.00 -1.00 -1.00
E      2.00 -1.00  2.00  0.00  0.00
T_1    3.00  0.00 -1.00  1.00 -1.00
T_2    3.00  0.00 -1.00 -1.00  1.00

     the symmetry operations in each class and the name of the first element:

     E        1
          identity
     8C3      5    7    8    6   12    9   10   11
          120 deg rotation - cart. axis [-1,-1,-1]
     3C2      2    3    4
          180 deg rotation - cart. axis [0,0,1]
     6S4     15   16   20   19   23   24
          inv.  90 deg rotation - cart. axis [0,0,-1]
     6s_d    13   14   17   18   21   22
          inv. 180 deg rotation - cart. axis [1,1,0]

   Cartesian axes

     site n.     atom                  positions (alat units)
         1           Zn  tau(   1) = (   0.0000000   0.0000000   0.0000000  )
         2           Zn  tau(   2) = (  -0.0000241   0.2498749   0.2498749  )
         3           Zn  tau(   3) = (   0.2498749  -0.0000241   0.2498749  )
         4           Zn  tau(   4) = (   0.2498749   0.2498749  -0.0000241  )
         5           S   tau(   5) = (   0.1250394   0.3752391   0.3752391  )
         6           S   tau(   6) = (   0.1250569   0.1250569   0.1250569  )
         7           S   tau(   7) = (   0.3752391   0.3752391   0.1250394  )
         8           S   tau(   8) = (   0.3752391   0.1250394   0.3752391  )
         9           Zn  tau(   9) = (   0.0000000   0.0000000   0.5000000  )
        10           Zn  tau(  10) = (   0.0000241   0.2498749   0.7501251  )
        11           Zn  tau(  11) = (   0.2498749   0.0000241   0.7501251  )
        12           Zn  tau(  12) = (   0.2501623   0.2501623   0.4983566  )
        13           S   tau(  13) = (   0.1259120   0.3752661   0.8740880  )
        14           S   tau(  14) = (   0.1259120   0.1259120   0.6247339  )
        15           S   tau(  15) = (   0.3798951   0.3798951   0.6201049  )
        16           S   tau(  16) = (   0.3752661   0.1259120   0.8740880  )
        17           Zn  tau(  17) = (   0.0000000   0.5000000   0.0000000  )
        18           Zn  tau(  18) = (   0.0000241   0.7501251   0.2498749  )
        19           Zn  tau(  19) = (   0.2501623   0.4983566   0.2501623  )
        20           Zn  tau(  20) = (   0.2498749   0.7501251   0.0000241  )
        21           S   tau(  21) = (   0.1259120   0.8740880   0.3752661  )
        22           S   tau(  22) = (   0.1259120   0.6247339   0.1259120  )
        23           S   tau(  23) = (   0.3752661   0.8740880   0.1259120  )
        24           S   tau(  24) = (   0.3798951   0.6201049   0.3798951  )
        25           Zn  tau(  25) = (   0.0000000   0.5000000   0.5000000  )
        26           Zn  tau(  26) = (  -0.0000241   0.7501251   0.7501251  )
        27           Zn  tau(  27) = (   0.2501623   0.5016434   0.7498377  )
        28           Zn  tau(  28) = (   0.2501623   0.7498377   0.5016434  )
        29           S   tau(  29) = (   0.1250569   0.8749431   0.8749431  )
        30           S   tau(  30) = (   0.1250394   0.6247609   0.6247609  )
        31           S   tau(  31) = (   0.3752391   0.8749606   0.6247609  )
        32           S   tau(  32) = (   0.3752391   0.6247609   0.8749606  )
        33           Zn  tau(  33) = (   0.5000000   0.0000000   0.0000000  )
        34           Zn  tau(  34) = (   0.4983566   0.2501623   0.2501623  )
        35           Zn  tau(  35) = (   0.7501251   0.0000241   0.2498749  )
        36           Zn  tau(  36) = (   0.7501251   0.2498749   0.0000241  )
        37           S   tau(  37) = (   0.6201049   0.3798951   0.3798951  )
        38           S   tau(  38) = (   0.6247339   0.1259120   0.1259120  )
        39           S   tau(  39) = (   0.8740880   0.3752661   0.1259120  )
        40           S   tau(  40) = (   0.8740880   0.1259120   0.3752661  )
        41           Zn  tau(  41) = (   0.5000000   0.0000000   0.5000000  )
        42           Zn  tau(  42) = (   0.5016434   0.2501623   0.7498377  )
        43           Zn  tau(  43) = (   0.7501251  -0.0000241   0.7501251  )
        44           Zn  tau(  44) = (   0.7498377   0.2501623   0.5016434  )
        45           S   tau(  45) = (   0.6247609   0.3752391   0.8749606  )
        46           S   tau(  46) = (   0.6247609   0.1250394   0.6247609  )
        47           S   tau(  47) = (   0.8749606   0.3752391   0.6247609  )
        48           S   tau(  48) = (   0.8749431   0.1250569   0.8749431  )
        49           Zn  tau(  49) = (   0.5000000   0.5000000   0.0000000  )
        50           Zn  tau(  50) = (   0.5016434   0.7498377   0.2501623  )
        51           Zn  tau(  51) = (   0.7498377   0.5016434   0.2501623  )
        52           Zn  tau(  52) = (   0.7501251   0.7501251  -0.0000241  )
        53           S   tau(  53) = (   0.6247609   0.8749606   0.3752391  )
        54           S   tau(  54) = (   0.6247609   0.6247609   0.1250394  )
        55           S   tau(  55) = (   0.8749431   0.8749431   0.1250569  )
[...]
     atom  31 (R=0.086)  charge=  3.7158  magn=  0.0061
     atom  32 (R=0.086)  charge=  3.7158  magn=  0.0061
     atom  33 (R=0.089)  charge= 10.1295  magn=  0.0037
     atom  34 (R=0.089)  charge= 10.1337  magn=  0.0076
     atom  35 (R=0.089)  charge= 10.1357  magn=  0.0015
     atom  36 (R=0.089)  charge= 10.1357  magn=  0.0015
     atom  37 (R=0.086)  charge=  3.6899  magn=  0.1457
     atom  38 (R=0.086)  charge=  3.7096  magn=  0.0152
     atom  39 (R=0.086)  charge=  3.7096  magn=  0.0152
     atom  40 (R=0.086)  charge=  3.7096  magn=  0.0152
     atom  41 (R=0.089)  charge= 10.1390  magn=  0.0005
     atom  42 (R=0.089)  charge= 10.1337  magn=  0.0076
     atom  43 (R=0.089)  charge= 10.1357  magn=  0.0015
     atom  44 (R=0.089)  charge= 10.1337  magn=  0.0076
     atom  45 (R=0.086)  charge=  3.7158  magn=  0.0061
     atom  46 (R=0.086)  charge=  3.7158  magn=  0.0061
     atom  47 (R=0.086)  charge=  3.7158  magn=  0.0061
     atom  48 (R=0.086)  charge=  3.7131  magn=  0.0066
     atom  49 (R=0.089)  charge= 10.1390  magn=  0.0005
     atom  50 (R=0.089)  charge= 10.1337  magn=  0.0076
     atom  51 (R=0.089)  charge= 10.1337  magn=  0.0076
     atom  52 (R=0.089)  charge= 10.1357  magn=  0.0015
     atom  53 (R=0.086)  charge=  3.7158  magn=  0.0061
     atom  54 (R=0.086)  charge=  3.7158  magn=  0.0061
     atom  55 (R=0.086)  charge=  3.7131  magn=  0.0066
     atom  56 (R=0.086)  charge=  3.7158  magn=  0.0061
     atom  57 (R=0.086)  charge= 16.0558  magn=  1.3941
     atom  58 (R=0.089)  charge= 10.1337  magn=  0.0076
     atom  59 (R=0.089)  charge= 10.1337  magn=  0.0076
     atom  60 (R=0.089)  charge= 10.1337  magn=  0.0076
     atom  61 (R=0.086)  charge=  3.7096  magn=  0.0152
     atom  62 (R=0.086)  charge=  3.6899  magn=  0.1457
     atom  63 (R=0.086)  charge=  3.7096  magn=  0.0152
     atom  64 (R=0.086)  charge=  3.7096  magn=  0.0152

     End of self-consistent calculation

 ------ SPIN UP ------------

          k = 0.0000 0.0000 0.0000 (269825 PWs)   bands (ev):

   -99.0407 -59.4036 -59.4036 -59.4036  -7.4860  -7.0454  -6.9498  -6.9498
    -6.9498  -6.8962  -6.8962  -6.7058  -6.7058  -6.7058  -6.6678  -6.5795
    -6.5795  -6.5795  -6.5786  -6.5786  -6.5786  -6.5724  -6.5724  -6.5453
    -6.5453  -6.5453  -6.5430  -6.3223  -6.3223  -6.3223  -6.2497  -6.2497
    -6.2497  -6.2399  -6.2399  -6.2399  -0.7098  -0.6987  -0.6987  -0.6843
    -0.6843  -0.6843  -0.6692  -0.6580  -0.6580  -0.6513  -0.6513  -0.6513
    -0.5647  -0.5647  -0.5647  -0.5627  -0.5627  -0.5627  -0.5581  -0.5581
    -0.5552  -0.5552  -0.5552  -0.5413  -0.5352  -0.5352  -0.5352  -0.5344
    -0.5319  -0.5319  -0.5319  -0.5235  -0.5235  -0.5235  -0.5194  -0.5194
    -0.5194  -0.5175  -0.5175  -0.5115  -0.5115  -0.5115  -0.5034  -0.5034
    -0.4969  -0.4969  -0.4969  -0.4914  -0.4914  -0.4902  -0.4874  -0.4874
    -0.4874  -0.4833  -0.4833  -0.4833  -0.4819  -0.4819  -0.4819  -0.4478
    -0.4478  -0.4478  -0.3892  -0.3892  -0.3892  -0.3847  -0.3847  -0.3847
    -0.3826  -0.3653  -0.3653  -0.3653  -0.3631  -0.3631  -0.3578  -0.3578
    -0.3578  -0.3303  -0.3303  -0.3303  -0.3201  -0.3201  -0.3201  -0.2615
    -0.2615  -0.2615  -0.2578  -0.2578  -0.2578  -0.2418  -0.2418  -0.2244
    -0.2131  -0.2131  -0.2131  -0.2123  -0.2123  -0.2112  -0.2112  -0.2112
    -0.2100  -0.1985  -0.1875  -0.1875  -0.1875  -0.1861  -0.1861  -0.1861
    -0.1804  -0.1804  -0.1664  -0.1647  -0.1647  -0.1647  -0.1594  -0.1594
    -0.1455  -0.1455  -0.1455  -0.1447  -0.1447  -0.1412  -0.1292  -0.1292
    -0.1292  -0.1242  -0.1242  -0.1242  -0.1211  -0.1211  -0.1115  -0.0983
    -0.0983  -0.0983  -0.0976  -0.0976  -0.0976  -0.0930  -0.0930  -0.0857
    -0.0826  -0.0826  -0.0392  -0.0392  -0.0392   0.0237   0.0415   0.0415
     0.0415   0.1642   0.1642   0.1642   0.2093   0.2093   0.2093   0.4029
     0.4029   0.4029   0.4309   1.0049   1.0049   1.0420   1.0797   1.0797
     1.0797   1.1160   1.1160   1.1340   1.2833   1.2833   1.2833   1.6728
     1.6728   1.6728   1.6958   1.6958   1.6958   1.7007   1.7007   1.7204
     2.0873   2.0873   2.0873   2.3932   2.3932   2.8766   2.8766   2.8766
     2.9264   2.9264   2.9264   2.9441   2.9441   2.9441   2.9452   3.0114
     3.0114   3.0330   3.0926   3.0926   3.0926   3.0962   3.0962   3.1069
     3.1069   3.1069   3.1352   3.1418   3.1418   3.1418   3.2772   3.2772
     3.2772   3.3990   3.3990   3.3990   3.4724   3.4724   3.4724   3.5654
     3.5654   4.3354   4.3354   4.3354   4.3550   4.3550   4.3550   4.3740
     4.3740   4.3740   4.4610   4.4610   4.4610   4.6400   4.6400   4.6400
     4.6963   4.6963   4.6963   4.6986   4.7097   4.7097   4.7299   4.7299
     4.7299   4.7363   4.7363   4.7363   4.7850   4.7850   4.8706   4.8706
     4.8706   5.5914   5.5914   5.5914   7.5897   8.8171   8.8171   8.8171
     8.8932   9.0476   9.0476   9.0476   9.6219   9.6219   9.6749   9.9713
     9.9713   9.9856   9.9856   9.9856  10.0121  10.1486  10.1486  10.1486
    10.1537  10.1537  10.1707  10.2996  10.2996  10.2996  10.3171  10.3171
    10.3171  10.3274  10.3274  10.3274  10.3290  10.3290  10.7381  11.2280
    11.2280  11.2280  11.3094  11.3094  11.3094  11.4511  11.4511  11.4576
    11.4576  11.4576  11.8538  11.9550  11.9550  11.9550  12.1862  12.1873
    12.1883  12.1886  12.1887  12.1889  12.2093

     occupation numbers
     1.0000   1.0000   1.0000   1.0000   1.0000   1.0000   1.0000   1.0000
     1.0000   1.0000   1.0000   1.0000   1.0000   1.0000   1.0000   1.0000
     1.0000   1.0000   1.0000   1.0000   1.0000   1.0000   1.0000   1.0000
     1.0000   1.0000   1.0000   1.0000   1.0000   1.0000   1.0000   1.0000
     1.0000   1.0000   1.0000   1.0000   1.0000   1.0000   1.0000   1.0000
     1.0000   1.0000   1.0000   1.0000   1.0000   1.0000   1.0000   1.0000
     1.0000   1.0000   1.0000   1.0000   1.0000   1.0000   1.0000   1.0000
     1.0000   1.0000   1.0000   1.0000   1.0000   1.0000   1.0000   1.0000
     1.0000   1.0000   1.0000   1.0000   1.0000   1.0000   1.0000   1.0000
     1.0000   1.0000   1.0000   1.0000   1.0000   1.0000   1.0000   1.0000
     1.0000   1.0000   1.0000   1.0000   1.0000   1.0000   1.0000   1.0000
     1.0000   1.0000   1.0000   1.0000   1.0000   1.0000   1.0000   1.0000
     1.0000   1.0000   1.0000   1.0000   1.0000   1.0000   1.0000   1.0000
     1.0000   1.0000   1.0000   1.0000   1.0000   1.0000   1.0000   1.0000
     1.0000   1.0000   1.0000   1.0000   1.0000   1.0000   1.0000   1.0000
     1.0000   1.0000   1.0000   1.0000   1.0000   1.0000   1.0000   1.0000
     1.0000   1.0000   1.0000   1.0000   1.0000   1.0000   1.0000   1.0000
     1.0000   1.0000   1.0000   1.0000   1.0000   1.0000   1.0000   1.0000
     1.0000   1.0000   1.0000   1.0000   1.0000   1.0000   1.0000   1.0000
     1.0000   1.0000   1.0000   1.0000   1.0000   1.0000   1.0000   1.0000
     1.0000   1.0000   1.0000   1.0000   1.0000   1.0000   1.0000   1.0000
     1.0000   1.0000   1.0000   1.0000   1.0000   1.0000   1.0000   1.0000
     1.0000   1.0000   1.0000   1.0000   1.0000   1.0000   1.0000   1.0000
     1.0000   1.0000   1.0000   1.0000   1.0000   1.0000   1.0000   1.0000
     1.0000   1.0000   1.0000   1.0000   1.0000   1.0000   1.0000   1.0000
     1.0000   1.0000   1.0000   1.0000   1.0000   1.0000   1.0000   1.0000
     1.0000   1.0000   1.0000   1.0000   1.0000   1.0000   1.0000   1.0000
     1.0000   1.0000   1.0000   1.0000   1.0000   1.0000   1.0000   1.0000
     1.0000   1.0000   1.0000   1.0000   1.0000   1.0000   1.0000   1.0000
     1.0000   1.0000   1.0000   1.0000   1.0000   1.0000   1.0000   1.0000
     1.0000   1.0000   1.0000   1.0000   1.0000   1.0000   1.0000   1.0000
     1.0000   1.0000   1.0000   1.0000   1.0000   1.0000   1.0000   1.0000
     1.0000   1.0000   1.0000   1.0000   1.0000   1.0000   1.0000   1.0000
     1.0000   1.0000   1.0000   1.0000   1.0000   1.0000   1.0000   1.0000
     1.0000   1.0000   1.0000   1.0000   1.0000   1.0000   1.0000   1.0000
     1.0000   1.0000   1.0000   1.0000   1.0000   1.0000   1.0000   1.0000
     1.0000   1.0000   1.0000   1.0000   0.0000   0.0000   0.0000   0.0000
     0.0000   0.0000   0.0000   0.0000   0.0000   0.0000   0.0000   0.0000
     0.0000   0.0000   0.0000   0.0000   0.0000   0.0000   0.0000   0.0000
     0.0000   0.0000   0.0000   0.0000   0.0000   0.0000   0.0000   0.0000
     0.0000   0.0000   0.0000   0.0000   0.0000   0.0000   0.0000   0.0000
     0.0000   0.0000   0.0000   0.0000   0.0000   0.0000   0.0000   0.0000
     0.0000   0.0000   0.0000   0.0000   0.0000   0.0000   0.0000   0.0000
     0.0000   0.0000   0.0000   0.0000   0.0000

[...]

          k =-0.5000-0.5000-0.5000 (269968 PWs)   bands (ev):

[...]

 ------ SPIN DOWN ----------

[...]

          k = 0.2500-0.5000-0.5000 (269956 PWs)   bands (ev):

[...]

          k =-0.5000-0.5000-0.5000 (269968 PWs)   bands (ev):

   -97.3217 -57.7263 -57.7263 -57.7263  -7.0899  -7.0297  -7.0297  -7.0297
    -7.0077  -7.0077  -7.0077  -6.9959  -6.4543  -6.4492  -6.4492  -6.4492
    -6.4113  -6.4113  -6.4096  -6.4096  -6.4096  -6.4057  -6.4057  -6.4057
    -6.3935  -6.3935  -6.3935  -6.3920  -6.3920  -6.3920  -6.3882  -6.3882
    -6.3868  -6.3761  -6.3761  -6.3761  -0.6122  -0.6122  -0.6122  -0.6085
    -0.6041  -0.6041  -0.6041  -0.5992  -0.5992  -0.5955  -0.5955  -0.5955
    -0.5876  -0.5861  -0.5861  -0.5861  -0.5861  -0.5861  -0.5861  -0.5819
    -0.5819  -0.5776  -0.5776  -0.5776  -0.5679  -0.5679  -0.5679  -0.5628
    -0.5628  -0.5628  -0.5590  -0.5531  -0.5531  -0.5531  -0.5512  -0.5512
    -0.5512  -0.5459  -0.5459  -0.5459  -0.5411  -0.5373  -0.5373  -0.5231
    -0.5231  -0.5127  -0.5127  -0.5127  -0.4743  -0.4424  -0.4424  -0.4424
    -0.4394  -0.4394  -0.4394  -0.4281  -0.4281  -0.4210  -0.4210  -0.4210
    -0.4201  -0.4201  -0.4145  -0.4145  -0.4145  -0.4079  -0.4079  -0.4079
    -0.4068  -0.3747  -0.3747  -0.3747  -0.3284  -0.3256  -0.3256  -0.3256
    -0.3185  -0.3185  -0.3185  -0.3147  -0.3147  -0.3147  -0.3088  -0.3088
    -0.3088  -0.3075  -0.3075  -0.2941  -0.2941  -0.2898  -0.2898  -0.2898
    -0.2890  -0.2010  -0.2010  -0.2010  -0.1976  -0.1976  -0.1976  -0.1962
    -0.1962  -0.1718  -0.1718  -0.1718  -0.1698  -0.1698  -0.1698  -0.1640
    -0.1484  -0.1484  -0.1484  -0.1476  -0.1476  -0.1476  -0.1312  -0.1312
    -0.1162  -0.1162  -0.1162  -0.1135  -0.1135  -0.1135  -0.1123  -0.1123
    -0.1123  -0.1095  -0.1095  -0.1095  -0.1031  -0.1031  -0.1031  -0.1006
    -0.0885  -0.0885  -0.0416  -0.0219  -0.0219  -0.0117  -0.0117  -0.0117
    -0.0106  -0.0106  -0.0106  -0.0013  -0.0013  -0.0013   0.0035   0.0035
     0.0035   0.0036   0.0036   0.0173   0.0234   0.0234   0.0234   1.0518
     1.0518   1.0518   1.1561   1.1561   1.1820   1.1820   1.1820   1.1974
     1.1974   1.2032   1.2032   1.2032   1.2042   1.2042   1.2042   1.2180
     1.2180   1.2180   1.2235   1.2235   1.2235   1.2244   1.3705   2.4599
     2.4599   2.4599   2.7935   2.7935   2.7935   2.7951   2.7999   2.7999
     2.8571   3.0364   3.0364   3.0364   3.2283   3.2283   3.2283   3.2517
     3.2517   3.2517   3.2577   3.2648   3.2648   3.2657   3.2657   3.2657
     3.2813   3.2813   3.2813   3.2821   3.2821   3.2821   3.2872   3.6508
     3.6508   3.6508   3.8350   3.8350   3.9988   3.9988   3.9988   4.0114
     4.0340   4.0340   4.0340   4.0416   4.0416   4.0416   4.0437   4.0437
     4.0437   4.0542   4.0542   4.0542   4.0555   4.0555   4.0640   4.4523
     4.4523   4.5338   4.5338   4.5338   5.1129   5.1129   5.1129   5.1241
     5.1241   5.1280   5.1280   5.1280   5.1324   5.1324   5.1324   5.2155
     5.2155   5.9468   5.9468   5.9468   8.9603   8.9603   8.9603   8.9719
     8.9896   8.9896   8.9896   9.1077   9.8547   9.8547   9.8730   9.8730
     9.8730   9.8894   9.9059   9.9059   9.9059   9.9095   9.9095   9.9095
     9.9161   9.9161   9.9161   9.9213   9.9213   9.9278   9.9278   9.9278
     9.9509   9.9509   9.9509  10.3110  11.3619  11.3619  11.3619  11.4627
    11.4627  11.4627  11.4967  11.4967  11.5049  11.5049  11.5049  11.5052
    11.5053  11.5053  11.5053  11.5243  11.5243  11.5243  11.5501  11.5501
    11.6089  11.6089  11.6089  12.2210  12.4013

     occupation numbers
     1.0000   1.0000   1.0000   1.0000   1.0000   1.0000   1.0000   1.0000
     1.0000   1.0000   1.0000   1.0000   1.0000   1.0000   1.0000   1.0000
     1.0000   1.0000   1.0000   1.0000   1.0000   1.0000   1.0000   1.0000
     1.0000   1.0000   1.0000   1.0000   1.0000   1.0000   1.0000   1.0000
     1.0000   1.0000   1.0000   1.0000   1.0000   1.0000   1.0000   1.0000
     1.0000   1.0000   1.0000   1.0000   1.0000   1.0000   1.0000   1.0000
     1.0000   1.0000   1.0000   1.0000   1.0000   1.0000   1.0000   1.0000
     1.0000   1.0000   1.0000   1.0000   1.0000   1.0000   1.0000   1.0000
     1.0000   1.0000   1.0000   1.0000   1.0000   1.0000   1.0000   1.0000
     1.0000   1.0000   1.0000   1.0000   1.0000   1.0000   1.0000   1.0000
     1.0000   1.0000   1.0000   1.0000   1.0000   1.0000   1.0000   1.0000
     1.0000   1.0000   1.0000   1.0000   1.0000   1.0000   1.0000   1.0000
     1.0000   1.0000   1.0000   1.0000   1.0000   1.0000   1.0000   1.0000
     1.0000   1.0000   1.0000   1.0000   1.0000   1.0000   1.0000   1.0000
     1.0000   1.0000   1.0000   1.0000   1.0000   1.0000   1.0000   1.0000
     1.0000   1.0000   1.0000   1.0000   1.0000   1.0000   1.0000   1.0000
     1.0000   1.0000   1.0000   1.0000   1.0000   1.0000   1.0000   1.0000
     1.0000   1.0000   1.0000   1.0000   1.0000   1.0000   1.0000   1.0000
     1.0000   1.0000   1.0000   1.0000   1.0000   1.0000   1.0000   1.0000
     1.0000   1.0000   1.0000   1.0000   1.0000   1.0000   1.0000   1.0000
     1.0000   1.0000   1.0000   1.0000   1.0000   1.0000   1.0000   1.0000
     1.0000   1.0000   1.0000   1.0000   1.0000   1.0000   1.0000   1.0000
     1.0000   1.0000   1.0000   1.0000   1.0000   1.0000   1.0000   1.0000
     1.0000   1.0000   1.0000   1.0000   1.0000   1.0000   1.0000   1.0000
     1.0000   1.0000   1.0000   1.0000   1.0000   1.0000   1.0000   1.0000
     1.0000   1.0000   1.0000   1.0000   1.0000   1.0000   1.0000   1.0000
     1.0000   1.0000   1.0000   1.0000   1.0000   1.0000   1.0000   1.0000
     1.0000   1.0000   1.0000   1.0000   1.0000   1.0000   1.0000   1.0000
     1.0000   1.0000   1.0000   1.0000   1.0000   1.0000   1.0000   1.0000
     1.0000   1.0000   1.0000   1.0000   1.0000   1.0000   1.0000   1.0000
     1.0000   1.0000   1.0000   1.0000   1.0000   1.0000   1.0000   1.0000
     1.0000   1.0000   1.0000   1.0000   1.0000   1.0000   1.0000   1.0000
     1.0000   1.0000   1.0000   1.0000   1.0000   1.0000   1.0000   1.0000
     1.0000   1.0000   1.0000   1.0000   1.0000   1.0000   1.0000   1.0000
     1.0000   1.0000   1.0000   1.0000   1.0000   1.0000   1.0000   1.0000
     1.0000   1.0000   1.0000   1.0000   1.0000   1.0000   1.0000   1.0000
     1.0000   0.0000   0.0000   0.0000   0.0000   0.0000   0.0000   0.0000
     0.0000   0.0000   0.0000   0.0000   0.0000   0.0000   0.0000   0.0000
     0.0000   0.0000   0.0000   0.0000   0.0000   0.0000   0.0000   0.0000
     0.0000   0.0000   0.0000   0.0000   0.0000   0.0000   0.0000   0.0000
     0.0000   0.0000   0.0000   0.0000   0.0000   0.0000   0.0000   0.0000
     0.0000   0.0000   0.0000   0.0000   0.0000   0.0000   0.0000   0.0000
     0.0000   0.0000   0.0000   0.0000   0.0000   0.0000   0.0000   0.0000
     0.0000   0.0000   0.0000   0.0000   0.0000

     the Fermi energy is     5.6643 ev

!    total energy              =  -10110.12468801 Ry
     total all-electron energy =   -139950.100361 Ry
     estimated scf accuracy    <          4.3E-09 Ry
     smearing contrib. (-TS)   =      -0.00000000 Ry
     internal energy E=F+TS    =  -10110.12468801 Ry

     The total energy is F=E-TS. E is the sum of the following terms:
     one-electron contribution =   -2995.88164564 Ry
     hartree contribution      =    2070.62101494 Ry
     xc contribution           =   -1660.79691505 Ry
     ewald contribution        =   -2998.74166819 Ry
     one-center paw contrib.   =   -4525.32547407 Ry
      -> PAW hartree energy AE =     123.12168491 Ry
      -> PAW hartree energy PS =    -122.47946284 Ry
      -> PAW xc energy AE      =    -143.19720127 Ry
      -> PAW xc energy PS      =      47.13602475 Ry
      -> total E_H with PAW    =    2071.26323701 Ry
      -> total E_XC with PAW   =   -1756.85809157 Ry

     total magnetization       =     3.00 Bohr mag/cell
     absolute magnetization    =     3.05 Bohr mag/cell

     convergence has been achieved in  15 iterations

     Writing all to output data dir ./out/Ni_qp1.save/

     General routines

     Parallel routines

     PAW routines

   This run was terminated on:  10:43:56   5Jul2024

   JOB DONE.