     Program PWSCF v.7.2 starts on  1Jul2024 at 11:35:46

     Waiting for input...
     Reading input from standard input

     Current dimensions of program PWSCF are:
     Max number of different atomic species (ntypx) = 10
     Max number of k-points (npk) =  40000
     Max angular momentum in pseudopotentials (lmaxx) =  4
     file S.pbe-n-kjpaw_psl.1.0.0.UPF: wavefunction(s)  3S 3P renormalized
     file Zn.pbe-dnl-kjpaw_psl.1.0.0.UPF: wavefunction(s)  4S 3D renormalized
     Found identity + (  0.0000  0.2500  0.2500) symmetry
     This is a supercell, fractional translations are disabled

     K-points division:     npool     =      10
     R & G space division:  proc/nbgrp/npool/nimage =     112
     Subspace diagonalization in iterative solution of the eigenvalue problem:
     one sub-group per band group will be used

     Using Slab Decomposition

     bravais-lattice index     =            1
     lattice parameter (alat)  =      20.5686  a.u.
     unit-cell volume          =    8701.8437 (a.u.)^3
     number of atoms/cell      =           64
     number of atomic types    =            2
     number of electrons       =       576.00
     number of Kohn-Sham states=          345
     kinetic-energy cutoff     =     105.0000  Ry
     charge density cutoff     =     420.0000  Ry
     scf convergence threshold =      1.0E-06
     mixing beta               =       0.7000
     number of iterations used =            8  plain     mixing
     Exchange-correlation= SLA  PW   PBX  PBC
                           (   1   4   3   4   0   0   0)
     Hubbard projectors: ortho-atomic
     Hubbard parameters of DFT+U (Dudarev formulation) in eV:
     U(Zn-3d) =  7.0000

     Internal variables: lda_plus_u = T, lda_plus_u_kind = 0

     celldm(1)=  20.568554  celldm(2)=   0.000000  celldm(3)=   0.000000
     celldm(4)=   0.000000  celldm(5)=   0.000000  celldm(6)=   0.000000

     crystal axes: (cart. coord. in units of alat)
               a(1) = (   1.000000   0.000000   0.000000 )
               a(2) = (   0.000000   1.000000   0.000000 )
               a(3) = (   0.000000   0.000000   1.000000 )

     reciprocal axes: (cart. coord. in units 2 pi/alat)
               b(1) = (  1.000000  0.000000  0.000000 )
               b(2) = (  0.000000  1.000000  0.000000 )
               b(3) = (  0.000000  0.000000  1.000000 )

     PseudoPot. # 1 for S  read from file:
     /arf/home/amuhaymin/pseudo/S.pbe-n-kjpaw_psl.1.0.0.UPF
     MD5 check sum: fb45dfebcf3e72a4e1bd4a866ec2e262
     Pseudo is Projector augmented-wave + core cor, Zval =  6.0
     Generated using &quot;atomic&quot; code by A. Dal Corso  v.6.3
     Shape of augmentation charge: PSQ
     Using radial grid of 1151 points,  6 beta functions with:
                l(1) =   0
                l(2) =   0
                l(3) =   1
                l(4) =   1
                l(5) =   2
                l(6) =   2
     Q(r) pseudized with 0 coefficients

     PseudoPot. # 2 for Zn read from file:
     /arf/home/amuhaymin/pseudo/Zn.pbe-dnl-kjpaw_psl.1.0.0.UPF
     MD5 check sum: c608214d9520ac179f507641260889e3
     Pseudo is Projector augmented-wave + core cor, Zval = 12.0
     Generated using &quot;atomic&quot; code by A. Dal Corso  v.6.2.2
     Shape of augmentation charge: PSQ
     Using radial grid of 1201 points,  6 beta functions with:
                l(1) =   0
                l(2) =   0
                l(3) =   1
                l(4) =   1
                l(5) =   2
                l(6) =   2
     Q(r) pseudized with 0 coefficients

     atomic species   valence    mass     pseudopotential
        S              6.00    32.06500     S ( 1.00)
        Zn            12.00    65.38000     Zn( 1.00)

     24 Sym. Ops. (no inversion) found

                                    s                        frac. trans.

      isym =  1     identity

 cryst.   s( 1) = (     1          0          0      )
                  (     0          1          0      )
                  (     0          0          1      )

 cart.    s( 1) = (  1.0000000  0.0000000  0.0000000 )
                  (  0.0000000  1.0000000  0.0000000 )
                  (  0.0000000  0.0000000  1.0000000 )

      isym =  2     180 deg rotation - cart. axis [0,0,1]

[...]

 cryst.   s( 9) = (     0          1          0      )
                  (     0          0          1      )
                  (     1          0          0      )

 cart.    s( 9) = (  0.0000000  0.0000000  1.0000000 )
                  (  1.0000000  0.0000000  0.0000000 )
                  (  0.0000000  1.0000000  0.0000000 )

[...]

 cryst.   s(10) = (     0         -1          0      )
                  (     0          0         -1      )
                  (     1          0          0      )

 cart.    s(10) = (  0.0000000  0.0000000  1.0000000 )
                  ( -1.0000000  0.0000000  0.0000000 )
                  (  0.0000000 -1.0000000  0.0000000 )

[...]

      isym = 12     120 deg rotation - cart. axis [-1,-1,1]

[...]

      isym = 13     inv. 180 deg rotation - cart. axis [1,1,0]

[...]

      isym = 24     inv.  90 deg rotation - cart. axis [1,0,0]

 cryst.   s(24) = (    -1          0          0      )
                  (     0          0         -1      )
                  (     0          1          0      )

 cart.    s(24) = ( -1.0000000  0.0000000  0.0000000 )
                  (  0.0000000  0.0000000  1.0000000 )
                  (  0.0000000 -1.0000000  0.0000000 )

     point group T_d (-43m)
     there are  5 classes
     the character table:

       E     8C3   3C2   6S4   6s_d
A_1    1.00  1.00  1.00  1.00  1.00
A_2    1.00  1.00  1.00 -1.00 -1.00
E      2.00 -1.00  2.00  0.00  0.00
T_1    3.00  0.00 -1.00  1.00 -1.00
T_2    3.00  0.00 -1.00 -1.00  1.00

     the symmetry operations in each class and the name of the first element:

     E        1
          identity
     8C3      5    7    8    6   12    9   10   11
          120 deg rotation - cart. axis [-1,-1,-1]
     3C2      2    3    4
          180 deg rotation - cart. axis [0,0,1]
     6S4     15   16   20   19   23   24
          inv.  90 deg rotation - cart. axis [0,0,-1]
     6s_d    13   14   17   18   21   22
          inv. 180 deg rotation - cart. axis [1,1,0]

   Cartesian axes

     site n.     atom                  positions (alat units)
         1           Zn  tau(   1) = (   0.0000000   0.0000000   0.0000000  )
         2           Zn  tau(   2) = (   0.0000000   0.2500000   0.2500000  )
         3           Zn  tau(   3) = (   0.2500000   0.0000000   0.2500000  )
         4           Zn  tau(   4) = (   0.2500000   0.2500000   0.0000000  )
         5           S   tau(   5) = (   0.1250000   0.3750000   0.3750000  )
         6           S   tau(   6) = (   0.1250000   0.1250000   0.1250000  )
         7           S   tau(   7) = (   0.3750000   0.3750000   0.1250000  )
         8           S   tau(   8) = (   0.3750000   0.1250000   0.3750000  )
         9           Zn  tau(   9) = (   0.0000000   0.0000000   0.5000000  )
        10           Zn  tau(  10) = (   0.0000000   0.2500000   0.7500000  )
        11           Zn  tau(  11) = (   0.2500000   0.0000000   0.7500000  )
        12           Zn  tau(  12) = (   0.2500000   0.2500000   0.5000000  )
        13           S   tau(  13) = (   0.1250000   0.3750000   0.8750000  )
        14           S   tau(  14) = (   0.1250000   0.1250000   0.6250000  )
        15           S   tau(  15) = (   0.3750000   0.3750000   0.6250000  )
        16           S   tau(  16) = (   0.3750000   0.1250000   0.8750000  )
        17           Zn  tau(  17) = (   0.0000000   0.5000000   0.0000000  )
        18           Zn  tau(  18) = (   0.0000000   0.7500000   0.2500000  )
        19           Zn  tau(  19) = (   0.2500000   0.5000000   0.2500000  )
        20           Zn  tau(  20) = (   0.2500000   0.7500000   0.0000000  )
        21           S   tau(  21) = (   0.1250000   0.8750000   0.3750000  )
        22           S   tau(  22) = (   0.1250000   0.6250000   0.1250000  )
        23           S   tau(  23) = (   0.3750000   0.8750000   0.1250000  )
        24           S   tau(  24) = (   0.3750000   0.6250000   0.3750000  )
        25           Zn  tau(  25) = (   0.0000000   0.5000000   0.5000000  )
        26           Zn  tau(  26) = (   0.0000000   0.7500000   0.7500000  )
        27           Zn  tau(  27) = (   0.2500000   0.5000000   0.7500000  )
        28           Zn  tau(  28) = (   0.2500000   0.7500000   0.5000000  )
        29           S   tau(  29) = (   0.1250000   0.8750000   0.8750000  )
        30           S   tau(  30) = (   0.1250000   0.6250000   0.6250000  )
        31           S   tau(  31) = (   0.3750000   0.8750000   0.6250000  )
        32           S   tau(  32) = (   0.3750000   0.6250000   0.8750000  )
        33           Zn  tau(  33) = (   0.5000000   0.0000000   0.0000000  )
        34           Zn  tau(  34) = (   0.5000000   0.2500000   0.2500000  )
        35           Zn  tau(  35) = (   0.7500000   0.0000000   0.2500000  )
        36           Zn  tau(  36) = (   0.7500000   0.2500000   0.0000000  )
        37           S   tau(  37) = (   0.6250000   0.3750000   0.3750000  )
        38           S   tau(  38) = (   0.6250000   0.1250000   0.1250000  )
        39           S   tau(  39) = (   0.8750000   0.3750000   0.1250000  )
        40           S   tau(  40) = (   0.8750000   0.1250000   0.3750000  )
        41           Zn  tau(  41) = (   0.5000000   0.0000000   0.5000000  )
        42           Zn  tau(  42) = (   0.5000000   0.2500000   0.7500000  )
        43           Zn  tau(  43) = (   0.7500000   0.0000000   0.7500000  )
        44           Zn  tau(  44) = (   0.7500000   0.2500000   0.5000000  )
        45           S   tau(  45) = (   0.6250000   0.3750000   0.8750000  )
        46           S   tau(  46) = (   0.6250000   0.1250000   0.6250000  )
        47           S   tau(  47) = (   0.8750000   0.3750000   0.6250000  )
        48           S   tau(  48) = (   0.8750000   0.1250000   0.8750000  )
        49           Zn  tau(  49) = (   0.5000000   0.5000000   0.0000000  )
        50           Zn  tau(  50) = (   0.5000000   0.7500000   0.2500000  )
        51           Zn  tau(  51) = (   0.7500000   0.5000000   0.2500000  )
        52           Zn  tau(  52) = (   0.7500000   0.7500000   0.0000000  )
        53           S   tau(  53) = (   0.6250000   0.8750000   0.3750000  )
        54           S   tau(  54) = (   0.6250000   0.6250000   0.1250000  )
        55           S   tau(  55) = (   0.8750000   0.8750000   0.1250000  )
        56           S   tau(  56) = (   0.8750000   0.6250000   0.3750000  )
        57           Zn  tau(  57) = (   0.5000000   0.5000000   0.5000000  )
        58           Zn  tau(  58) = (   0.5000000   0.7500000   0.7500000  )
        59           Zn  tau(  59) = (   0.7500000   0.5000000   0.7500000  )
        60           Zn  tau(  60) = (   0.7500000   0.7500000   0.5000000  )
        61           S   tau(  61) = (   0.6250000   0.8750000   0.8750000  )
        62           S   tau(  62) = (   0.6250000   0.6250000   0.6250000  )
[...]
       0.000  0.000 -0.000  0.999  0.035
       0.750  0.637  0.178 -0.000 -0.000
     occupation matrix ns (before diag.):
       0.998 -0.000 -0.000  0.000  0.000
      -0.000  0.996 -0.000  0.000  0.000
      -0.000 -0.000  0.996  0.000  0.000
       0.000  0.000  0.000  0.998 -0.000
       0.000  0.000  0.000 -0.000  0.996
     ------------------------ ATOM   58 ------------------------
     Tr[ns( 58)] =   9.96741
     eigenvalues:
       0.996  0.996  0.996  0.998  0.998
     eigenvectors (columns):
      -0.000 -0.000 -0.000 -0.866 -0.500
       0.366 -0.707  0.605  0.000 -0.000
       0.856 -0.000 -0.518  0.000 -0.000
       0.000 -0.000  0.000 -0.500  0.866
      -0.366 -0.707 -0.605  0.000  0.000
     occupation matrix ns (before diag.):
       0.998 -0.000  0.000 -0.000 -0.000
      -0.000  0.996 -0.000 -0.000 -0.000
       0.000 -0.000  0.996 -0.000  0.000
      -0.000 -0.000 -0.000  0.998  0.000
      -0.000 -0.000  0.000  0.000  0.996
     ------------------------ ATOM   59 ------------------------
     Tr[ns( 59)] =   9.96741
     eigenvalues:
       0.996  0.996  0.996  0.998  0.998
     eigenvectors (columns):
      -0.000 -0.000 -0.000 -0.866 -0.500
       0.856 -0.000 -0.518  0.000 -0.000
       0.366 -0.707  0.605  0.000 -0.000
      -0.000  0.000 -0.000  0.500 -0.866
      -0.366 -0.707 -0.605  0.000  0.000
     occupation matrix ns (before diag.):
       0.998  0.000 -0.000  0.000 -0.000
       0.000  0.996 -0.000  0.000  0.000
      -0.000 -0.000  0.996  0.000 -0.000
       0.000  0.000  0.000  0.998 -0.000
      -0.000  0.000 -0.000 -0.000  0.996
     ------------------------ ATOM   60 ------------------------
     Tr[ns( 60)] =   9.96741
     eigenvalues:
       0.996  0.996  0.996  0.998  0.998
     eigenvectors (columns):
      -0.000 -0.000 -0.000  0.000  1.000
      -0.366 -0.707 -0.605  0.000 -0.000
      -0.366  0.707 -0.605 -0.000 -0.000
       0.000 -0.000  0.000 -1.000  0.000
       0.856  0.000 -0.518  0.000  0.000
     occupation matrix ns (before diag.):
       0.998 -0.000 -0.000  0.000  0.000
      -0.000  0.996  0.000 -0.000  0.000
      -0.000  0.000  0.996  0.000  0.000
       0.000 -0.000  0.000  0.998 -0.000
       0.000  0.000  0.000 -0.000  0.996

     Number of occupied Hubbard levels =  318.9572

     HUBBARD ENERGY =    0.2673  (Ry)

     End of self-consistent calculation

          k = 0.0000 0.0000 0.0000 (158355 PWs)   bands (ev):

    -7.4492  -7.0066  -7.0065  -7.0065  -7.0065  -7.0064  -7.0064  -6.7703
    -6.7703  -6.7703  -6.7703  -6.7701  -6.7701  -6.7701  -6.7701  -6.7701
    -6.7701  -6.7701  -6.7701  -6.7671  -6.7671  -6.7671  -6.7671  -6.5651
    -6.5651  -6.5651  -6.5501  -6.5501  -6.5501  -6.5500  -6.5500  -6.5500
    -3.6451  -3.6451  -3.6451  -3.5793  -3.5793  -3.5793  -3.5792  -3.5792
    -3.5792  -3.5792  -3.5792  -3.5667  -3.5667  -3.5667  -3.5667  -3.5667
    -3.5666  -3.5666  -3.5666  -3.5666  -3.5666  -3.5666  -3.5666  -3.5505
    -3.5505  -3.5505  -3.5460  -3.5460  -3.5460  -3.5460  -3.5460  -3.5460
    -3.5460  -3.5460  -3.5460  -3.5459  -3.5459  -3.5459  -3.5407  -3.5407
    -3.5407  -3.5407  -3.5407  -3.5407  -3.5407  -3.5407  -3.5407  -3.5406
    -3.5406  -3.5406  -3.5128  -3.5128  -3.5128  -3.5128  -3.5128  -3.5128
    -3.5125  -3.5125  -3.5125  -3.5125  -3.5125  -3.5125  -3.5077  -3.5077
    -3.5077  -3.5077  -3.5077  -3.5076  -3.4339  -3.4339  -3.4339  -3.4339
    -3.4339  -3.4339  -3.4083  -3.4083  -3.4083  -3.4083  -3.4083  -3.4083
    -3.3966  -3.3966  -3.3966  -3.3966  -3.3966  -3.3966  -3.3966  -3.3966
    -3.3966  -3.3966  -3.3966  -3.3965  -3.3885  -3.3885  -3.3885  -3.3885
    -3.3885  -3.3885  -3.3885  -3.3885  -3.3885  -3.3885  -3.3885  -3.3884
    -3.3884  -3.3883  -3.3796  -3.3796  -3.3796  -3.3796  -3.3796  -3.3795
    -3.3684  -3.3684  -3.3684  -3.3684  -3.3684  -3.3683  -3.3562  -3.3562
    -3.3562  -3.3562  -3.3562  -3.3562  -3.3561  -3.3561  -3.3535  -3.3535
    -3.3535  -3.3535  -3.3535  -3.3534  -3.3185  -3.3184  -3.3184  -3.0575
    -3.0575  -3.0575  -3.0574  -3.0574  -3.0574  -3.0574  -3.0574  -3.0574
    -3.0574  -3.0574  -3.0574  -2.9537  -2.9537  -2.9537  -2.9537  -2.8329
    -2.8329  -2.8329  -2.6972  -2.6972  -2.6972  -2.6972  -2.6972  -2.6972
     0.3966   0.3966   0.3966   0.3966   0.7802   0.7802   0.7802   1.0063
     1.0064   1.0064   1.0064   1.0064   1.0064   1.4260   1.4261   1.4261
     1.4261   1.4261   1.4261   1.4261   1.4261   1.4261   1.4261   1.4262
     1.4262   2.6997   2.6997   2.6997   2.6997   2.6997   2.6998   2.7103
     2.7103   2.7103   2.7103   2.7103   2.7103   2.8672   2.8672   2.8672
     2.8672   2.8672   2.8672   2.9712   2.9712   2.9712   2.9712   2.9712
     2.9712   2.9712   2.9712   2.9712   2.9712   2.9712   2.9712   3.3236
     3.3236   3.3236   3.3236   3.3236   3.3236   4.2042   4.2042   4.2042
     4.2042   4.2042   4.2042   4.2042   4.2042   4.2042   4.2043   4.2043
     4.2043   4.5220   4.5220   4.5220   4.5220   4.5220   4.5220   4.5220
     4.5220   4.5221   4.5221   4.5221   4.5221   4.5611   4.5611   4.5611
     4.5611   4.5611   4.5611   4.5611   4.5611   5.3490   5.3490   5.3490
     7.5838   8.8186   8.8186   8.8186   8.8187   8.9748   8.9748   8.9748
     9.6141   9.6141   9.6141   9.9887   9.9888   9.9888   9.9888   9.9888
     9.9888  10.1212  10.1212  10.1212  10.1212  10.1212  10.1212  10.3322
    10.3323  10.3323  10.3323  10.3323  10.3323  10.3323  10.3323  10.3323
    10.3323  10.3324  10.3324  11.2189  11.2190  11.2190  11.2190  11.2190
    11.2190  11.4946  11.4947  11.4947  11.4947  11.4947  11.4947  11.9484
    12.1846  12.1862  12.1878  12.1878  12.1878  12.1878  12.1878  12.1878
    12.1879

     occupation numbers
     1.0000   1.0000   1.0000   1.0000   1.0000   1.0000   1.0000   1.0000
     1.0000   1.0000   1.0000   1.0000   1.0000   1.0000   1.0000   1.0000
     1.0000   1.0000   1.0000   1.0000   1.0000   1.0000   1.0000   1.0000
     1.0000   1.0000   1.0000   1.0000   1.0000   1.0000   1.0000   1.0000
     1.0000   1.0000   1.0000   1.0000   1.0000   1.0000   1.0000   1.0000
     1.0000   1.0000   1.0000   1.0000   1.0000   1.0000   1.0000   1.0000
     1.0000   1.0000   1.0000   1.0000   1.0000   1.0000   1.0000   1.0000
     1.0000   1.0000   1.0000   1.0000   1.0000   1.0000   1.0000   1.0000
     1.0000   1.0000   1.0000   1.0000   1.0000   1.0000   1.0000   1.0000
     1.0000   1.0000   1.0000   1.0000   1.0000   1.0000   1.0000   1.0000
     1.0000   1.0000   1.0000   1.0000   1.0000   1.0000   1.0000   1.0000
     1.0000   1.0000   1.0000   1.0000   1.0000   1.0000   1.0000   1.0000
     1.0000   1.0000   1.0000   1.0000   1.0000   1.0000   1.0000   1.0000
     1.0000   1.0000   1.0000   1.0000   1.0000   1.0000   1.0000   1.0000
     1.0000   1.0000   1.0000   1.0000   1.0000   1.0000   1.0000   1.0000
     1.0000   1.0000   1.0000   1.0000   1.0000   1.0000   1.0000   1.0000
     1.0000   1.0000   1.0000   1.0000   1.0000   1.0000   1.0000   1.0000
     1.0000   1.0000   1.0000   1.0000   1.0000   1.0000   1.0000   1.0000
     1.0000   1.0000   1.0000   1.0000   1.0000   1.0000   1.0000   1.0000
     1.0000   1.0000   1.0000   1.0000   1.0000   1.0000   1.0000   1.0000
     1.0000   1.0000   1.0000   1.0000   1.0000   1.0000   1.0000   1.0000
     1.0000   1.0000   1.0000   1.0000   1.0000   1.0000   1.0000   1.0000
     1.0000   1.0000   1.0000   1.0000   1.0000   1.0000   1.0000   1.0000
     1.0000   1.0000   1.0000   1.0000   1.0000   1.0000   1.0000   1.0000
     1.0000   1.0000   1.0000   1.0000   1.0000   1.0000   1.0000   1.0000
     1.0000   1.0000   1.0000   1.0000   1.0000   1.0000   1.0000   1.0000
     1.0000   1.0000   1.0000   1.0000   1.0000   1.0000   1.0000   1.0000
     1.0000   1.0000   1.0000   1.0000   1.0000   1.0000   1.0000   1.0000
     1.0000   1.0000   1.0000   1.0000   1.0000   1.0000   1.0000   1.0000
     1.0000   1.0000   1.0000   1.0000   1.0000   1.0000   1.0000   1.0000
     1.0000   1.0000   1.0000   1.0000   1.0000   1.0000   1.0000   1.0000
     1.0000   1.0000   1.0000   1.0000   1.0000   1.0000   1.0000   1.0000
     1.0000   1.0000   1.0000   1.0000   1.0000   1.0000   1.0000   1.0000
     1.0000   1.0000   1.0000   1.0000   1.0000   1.0000   1.0000   1.0000
     1.0000   1.0000   1.0000   1.0000   1.0000   1.0000   1.0000   1.0000
     1.0000   1.0000   1.0000   1.0000   1.0000   1.0000   1.0000   1.0000
     0.0000   0.0000   0.0000   0.0000   0.0000   0.0000   0.0000   0.0000
     0.0000   0.0000   0.0000   0.0000   0.0000   0.0000   0.0000   0.0000
     0.0000   0.0000   0.0000   0.0000   0.0000   0.0000   0.0000   0.0000
     0.0000   0.0000   0.0000   0.0000   0.0000   0.0000   0.0000   0.0000
     0.0000   0.0000   0.0000   0.0000   0.0000   0.0000   0.0000   0.0000
     0.0000   0.0000   0.0000   0.0000   0.0000   0.0000   0.0000   0.0000
     0.0000   0.0000   0.0000   0.0000   0.0000   0.0000   0.0000   0.0000
     0.0000

[...]

          k = 0.2500-0.5000-0.5000 (158052 PWs)   bands (ev):

[...]

          k =-0.5000-0.5000-0.5000 (158408 PWs)   bands (ev):

    -7.1145  -7.1145  -7.1144  -7.1144  -7.1144  -7.1144  -7.1144  -7.1144
    -6.6615  -6.6615  -6.6615  -6.6614  -6.6614  -6.6614  -6.6614  -6.6613
    -6.6613  -6.6613  -6.6613  -6.6613  -6.6613  -6.6613  -6.6613  -6.6613
    -6.6613  -6.6613  -6.6613  -6.6613  -6.6613  -6.6613  -6.6613  -6.6613
    -3.6020  -3.6020  -3.6020  -3.6020  -3.6020  -3.6020  -3.6020  -3.6020
    -3.6020  -3.6020  -3.6020  -3.6019  -3.6019  -3.6019  -3.6019  -3.6019
    -3.5488  -3.5488  -3.5488  -3.5488  -3.5488  -3.5487  -3.5487  -3.5487
    -3.5487  -3.5487  -3.5487  -3.5487  -3.5487  -3.5487  -3.5487  -3.5487
    -3.5487  -3.5486  -3.5486  -3.5486  -3.5486  -3.5486  -3.5486  -3.5485
    -3.5022  -3.5022  -3.5022  -3.5022  -3.5022  -3.5022  -3.5022  -3.5022
    -3.5022  -3.5022  -3.5021  -3.5021  -3.5021  -3.5021  -3.5021  -3.5021
    -3.5021  -3.5021  -3.5020  -3.5020  -3.5020  -3.5020  -3.5020  -3.5020
    -3.4542  -3.4542  -3.4542  -3.4542  -3.4542  -3.4542  -3.4542  -3.4541
    -3.4375  -3.4375  -3.4375  -3.4375  -3.4375  -3.4375  -3.4375  -3.4375
    -3.4374  -3.4374  -3.4374  -3.4374  -3.4374  -3.4374  -3.4374  -3.4374
    -3.4374  -3.4373  -3.4373  -3.4373  -3.4373  -3.4373  -3.4373  -3.4373
    -3.3838  -3.3838  -3.3837  -3.3837  -3.3837  -3.3837  -3.3837  -3.3837
    -3.3837  -3.3837  -3.3836  -3.3836  -3.3836  -3.3836  -3.3836  -3.3836
    -3.3448  -3.3448  -3.3448  -3.3447  -3.3447  -3.3447  -3.3447  -3.3447
    -3.3447  -3.3447  -3.3447  -3.3447  -3.3447  -3.3447  -3.3446  -3.3446
    -3.3446  -3.3446  -3.3446  -3.3446  -3.3446  -3.3445  -3.3445  -3.3445
    -2.9072  -2.9072  -2.9072  -2.9071  -2.9071  -2.9071  -2.9071  -2.9071
    -2.9071  -2.9071  -2.9071  -2.9071  -2.9071  -2.9071  -2.9071  -2.9070
    -2.9070  -2.9070  -2.9070  -2.9070  -2.9070  -2.9070  -2.9070  -2.9070
     0.9884   0.9885   0.9885   0.9885   0.9885   0.9885   0.9885   0.9885
     0.9885   0.9885   0.9885   0.9885   0.9885   0.9886   0.9886   0.9886
     0.9886   0.9886   0.9886   0.9886   0.9886   0.9886   0.9886   0.9886
     2.5128   2.5128   2.5128   2.5128   2.5128   2.5128   2.5128   2.5128
     3.0718   3.0718   3.0719   3.0719   3.0719   3.0719   3.0719   3.0719
     3.0719   3.0719   3.0719   3.0719   3.0719   3.0719   3.0719   3.0719
     3.0719   3.0719   3.0719   3.0719   3.0719   3.0719   3.0719   3.0719
     3.8863   3.8863   3.8863   3.8863   3.8863   3.8863   3.8863   3.8863
     3.8863   3.8863   3.8863   3.8863   3.8863   3.8863   3.8863   3.8863
     3.8863   3.8864   3.8864   3.8864   3.8864   3.8864   3.8864   3.8864
     4.9199   4.9199   4.9199   4.9200   4.9200   4.9200   4.9200   4.9200
     4.9200   4.9200   4.9200   4.9200   4.9200   4.9200   4.9200   4.9200
     8.9714   8.9715   8.9715   8.9715   8.9715   8.9715   8.9715   8.9715
     9.8646   9.8646   9.8646   9.8646   9.8646   9.8647   9.8647   9.8647
     9.8647   9.8647   9.8647   9.8647   9.8647   9.8647   9.8647   9.8647
     9.8647   9.8647   9.8647   9.8647   9.8647   9.8647   9.8647   9.8647
    11.4755  11.4755  11.4755  11.4755  11.4755  11.4756  11.4756  11.4756
    11.4756  11.4756  11.4756  11.4756  11.4756  11.4756  11.4756  11.4756
    11.4756  11.4756  11.4756  11.4756  11.4756  11.4756  11.4756  11.4756
    12.4216

     occupation numbers
     1.0000   1.0000   1.0000   1.0000   1.0000   1.0000   1.0000   1.0000
     1.0000   1.0000   1.0000   1.0000   1.0000   1.0000   1.0000   1.0000
     1.0000   1.0000   1.0000   1.0000   1.0000   1.0000   1.0000   1.0000
     1.0000   1.0000   1.0000   1.0000   1.0000   1.0000   1.0000   1.0000
     1.0000   1.0000   1.0000   1.0000   1.0000   1.0000   1.0000   1.0000
     1.0000   1.0000   1.0000   1.0000   1.0000   1.0000   1.0000   1.0000
     1.0000   1.0000   1.0000   1.0000   1.0000   1.0000   1.0000   1.0000
     1.0000   1.0000   1.0000   1.0000   1.0000   1.0000   1.0000   1.0000
     1.0000   1.0000   1.0000   1.0000   1.0000   1.0000   1.0000   1.0000
     1.0000   1.0000   1.0000   1.0000   1.0000   1.0000   1.0000   1.0000
     1.0000   1.0000   1.0000   1.0000   1.0000   1.0000   1.0000   1.0000
     1.0000   1.0000   1.0000   1.0000   1.0000   1.0000   1.0000   1.0000
     1.0000   1.0000   1.0000   1.0000   1.0000   1.0000   1.0000   1.0000
     1.0000   1.0000   1.0000   1.0000   1.0000   1.0000   1.0000   1.0000
     1.0000   1.0000   1.0000   1.0000   1.0000   1.0000   1.0000   1.0000
     1.0000   1.0000   1.0000   1.0000   1.0000   1.0000   1.0000   1.0000
     1.0000   1.0000   1.0000   1.0000   1.0000   1.0000   1.0000   1.0000
     1.0000   1.0000   1.0000   1.0000   1.0000   1.0000   1.0000   1.0000
     1.0000   1.0000   1.0000   1.0000   1.0000   1.0000   1.0000   1.0000
     1.0000   1.0000   1.0000   1.0000   1.0000   1.0000   1.0000   1.0000
     1.0000   1.0000   1.0000   1.0000   1.0000   1.0000   1.0000   1.0000
     1.0000   1.0000   1.0000   1.0000   1.0000   1.0000   1.0000   1.0000
     1.0000   1.0000   1.0000   1.0000   1.0000   1.0000   1.0000   1.0000
     1.0000   1.0000   1.0000   1.0000   1.0000   1.0000   1.0000   1.0000
     1.0000   1.0000   1.0000   1.0000   1.0000   1.0000   1.0000   1.0000
     1.0000   1.0000   1.0000   1.0000   1.0000   1.0000   1.0000   1.0000
     1.0000   1.0000   1.0000   1.0000   1.0000   1.0000   1.0000   1.0000
     1.0000   1.0000   1.0000   1.0000   1.0000   1.0000   1.0000   1.0000
     1.0000   1.0000   1.0000   1.0000   1.0000   1.0000   1.0000   1.0000
     1.0000   1.0000   1.0000   1.0000   1.0000   1.0000   1.0000   1.0000
     1.0000   1.0000   1.0000   1.0000   1.0000   1.0000   1.0000   1.0000
     1.0000   1.0000   1.0000   1.0000   1.0000   1.0000   1.0000   1.0000
     1.0000   1.0000   1.0000   1.0000   1.0000   1.0000   1.0000   1.0000
     1.0000   1.0000   1.0000   1.0000   1.0000   1.0000   1.0000   1.0000
     1.0000   1.0000   1.0000   1.0000   1.0000   1.0000   1.0000   1.0000
     1.0000   1.0000   1.0000   1.0000   1.0000   1.0000   1.0000   1.0000
     0.0000   0.0000   0.0000   0.0000   0.0000   0.0000   0.0000   0.0000
     0.0000   0.0000   0.0000   0.0000   0.0000   0.0000   0.0000   0.0000
     0.0000   0.0000   0.0000   0.0000   0.0000   0.0000   0.0000   0.0000
     0.0000   0.0000   0.0000   0.0000   0.0000   0.0000   0.0000   0.0000
     0.0000   0.0000   0.0000   0.0000   0.0000   0.0000   0.0000   0.0000
     0.0000   0.0000   0.0000   0.0000   0.0000   0.0000   0.0000   0.0000
     0.0000   0.0000   0.0000   0.0000   0.0000   0.0000   0.0000   0.0000
     0.0000

     highest occupied, lowest unoccupied level (ev):     5.3490    7.5838

!    total energy              =   -9924.06005439 Ry
     total all-electron energy =   -140500.000642 Ry
     estimated scf accuracy    <       0.00000054 Ry

     The total energy is the sum of the following terms:
     one-electron contribution =   -2759.73435692 Ry
     hartree contribution      =    1968.30553647 Ry
     xc contribution           =   -1676.05858889 Ry
     ewald contribution        =   -2927.19912172 Ry
     Hubbard energy            =       0.26731249 Ry
     one-center paw contrib.   =   -4529.64083582 Ry
      -> PAW hartree energy AE =     123.78155821 Ry
      -> PAW hartree energy PS =    -123.13438040 Ry
      -> PAW xc energy AE      =    -143.26832382 Ry
      -> PAW xc energy PS      =      47.20499886 Ry
      -> total E_H with PAW    =    1968.95271429 Ry
      -> total E_XC with PAW   =   -1772.12191385 Ry

     convergence has been achieved in   9 iterations

     Writing all to output data dir ./out/ZnS_hub.save/

     General routines

     Parallel routines

     Hubbard U routines

     PAW routines

   This run was terminated on:  11:37:26   1Jul2024

   JOB DONE.