     Program PWSCF v.7.2 starts on  7Jul2024 at  3:54:49

     Reading input from 2.Co_vac_in_ZnS.scf.qp2.in

     Current dimensions of program PWSCF are:
     Max number of different atomic species (ntypx) = 10
     Max number of k-points (npk) =  40000
     Max angular momentum in pseudopotentials (lmaxx) =  4
     file S.pbe-n-kjpaw_psl.1.0.0.UPF: wavefunction(s)  3S 3P renormalized
     file Zn.pbe-dnl-kjpaw_psl.1.0.0.UPF: wavefunction(s)  4S 3D renormalized
     file Co.pbe-spn-kjpaw_psl.0.3.1.UPF: wavefunction(s)  3P 3D renormalized

     K-points division:     npool     =       7
     R & G space division:  proc/nbgrp/npool/nimage =     112
     Subspace diagonalization in iterative solution of the eigenvalue problem:
     one sub-group per band group will be used

     Using Slab Decomposition

     bravais-lattice index     =            1
     lattice parameter (alat)  =      20.5686  a.u.
     unit-cell volume          =    8701.8437 (a.u.)^3
     number of atoms/cell      =           63
     number of atomic types    =            3
     number of electrons       =       573.00
     number of Kohn-Sham states=          344
     kinetic-energy cutoff     =     150.0000  Ry
     charge density cutoff     =     600.0000  Ry
     scf convergence threshold =      1.0E-08
     mixing beta               =       0.7000
     number of iterations used =            8  plain     mixing
     Exchange-correlation= SLA  PW   PBX  PBC
                           (   1   4   3   4   0   0   0)

     celldm(1)=  20.568554  celldm(2)=   0.000000  celldm(3)=   0.000000
     celldm(4)=   0.000000  celldm(5)=   0.000000  celldm(6)=   0.000000

     crystal axes: (cart. coord. in units of alat)
               a(1) = (   1.000000   0.000000   0.000000 )
               a(2) = (   0.000000   1.000000   0.000000 )
               a(3) = (   0.000000   0.000000   1.000000 )

     reciprocal axes: (cart. coord. in units 2 pi/alat)
               b(1) = (  1.000000  0.000000  0.000000 )
               b(2) = (  0.000000  1.000000  0.000000 )
               b(3) = (  0.000000  0.000000  1.000000 )

     PseudoPot. # 1 for S  read from file:
     /arf/home/amuhaymin/pseudo/S.pbe-n-kjpaw_psl.1.0.0.UPF
     MD5 check sum: fb45dfebcf3e72a4e1bd4a866ec2e262
     Pseudo is Projector augmented-wave + core cor, Zval =  6.0
     Generated using &quot;atomic&quot; code by A. Dal Corso  v.6.3
     Shape of augmentation charge: PSQ
     Using radial grid of 1151 points,  6 beta functions with:
                l(1) =   0
                l(2) =   0
                l(3) =   1
                l(4) =   1
                l(5) =   2
                l(6) =   2
     Q(r) pseudized with 0 coefficients

     PseudoPot. # 2 for Zn read from file:
     /arf/home/amuhaymin/pseudo/Zn.pbe-dnl-kjpaw_psl.1.0.0.UPF
     MD5 check sum: c608214d9520ac179f507641260889e3
     Pseudo is Projector augmented-wave + core cor, Zval = 12.0
     Generated using &quot;atomic&quot; code by A. Dal Corso  v.6.2.2
     Shape of augmentation charge: PSQ
     Using radial grid of 1201 points,  6 beta functions with:
                l(1) =   0
                l(2) =   0
                l(3) =   1
                l(4) =   1
                l(5) =   2
                l(6) =   2
     Q(r) pseudized with 0 coefficients

     PseudoPot. # 3 for Co read from file:
     /arf/home/amuhaymin/pseudo/Co.pbe-spn-kjpaw_psl.0.3.1.UPF
     MD5 check sum: b0a1ad65bf214e88c1f3d33b20c7d919
     Pseudo is Projector augmented-wave + core cor, Zval = 17.0
     Generated using &quot;atomic&quot; code by A. Dal Corso  v.6.2.2
     Shape of augmentation charge: PSQ
     Using radial grid of 1193 points,  6 beta functions with:
                l(1) =   0
                l(2) =   0
                l(3) =   1
                l(4) =   1
                l(5) =   2
                l(6) =   2
     Q(r) pseudized with 0 coefficients

     atomic species   valence    mass     pseudopotential
        S              6.00    32.06500     S ( 1.00)
        Zn            12.00    65.38000     Zn( 1.00)
        Co            17.00    63.54600     Co( 1.00)

     Starting magnetic structure
     atomic species   magnetization
        S            0.000
        Zn           0.000
        Co           0.294

      6 Sym. Ops. (no inversion) found

                                    s                        frac. trans.

      isym =  1     identity

 cryst.   s( 1) = (     1          0          0      )
                  (     0          1          0      )
                  (     0          0          1      )

 cart.    s( 1) = (  1.0000000  0.0000000  0.0000000 )
                  (  0.0000000  1.0000000  0.0000000 )
                  (  0.0000000  0.0000000  1.0000000 )

      isym =  2     120 deg rotation - cart. axis [-1,-1,-1]

[...]

      isym =  3     120 deg rotation - cart. axis [1,1,1]

[...]

      isym =  4     inv. 180 deg rotation - cart. axis [1,-1,0]

[...]

      isym =  6     inv. 180 deg rotation - cart. axis [0,1,-1]

 cryst.   s( 6) = (     1          0          0      )
                  (     0          0          1      )
                  (     0          1          0      )

 cart.    s( 6) = (  1.0000000  0.0000000  0.0000000 )
                  (  0.0000000  0.0000000  1.0000000 )
                  (  0.0000000  1.0000000  0.0000000 )

     point group C_3v (3m)
     there are  3 classes
     the character table:

       E     2C3   3s_v
A_1    1.00  1.00  1.00
A_2    1.00  1.00 -1.00
E      2.00 -1.00  0.00

     the symmetry operations in each class and the name of the first element:

     E        1
          identity
     2C3      2    3
          120 deg rotation - cart. axis [-1,-1,-1]
     3s_v     4    5    6
          inv. 180 deg rotation - cart. axis [1,-1,0]

   Cartesian axes

     site n.     atom                  positions (alat units)
         1           Zn  tau(   1) = (   0.0002635   0.0002635   0.0002635  )
         2           Zn  tau(   2) = (   0.0000735   0.2492345   0.2492345  )
         3           Zn  tau(   3) = (   0.2492345   0.0000735   0.2492345  )
         4           Zn  tau(   4) = (   0.2492345   0.2492345   0.0000735  )
         5           S   tau(   5) = (   0.1243634   0.3744312   0.3744312  )
         6           S   tau(   6) = (   0.1247218   0.1247218   0.1247218  )
         7           S   tau(   7) = (   0.3744312   0.3744312   0.1243634  )
         8           S   tau(   8) = (   0.3744312   0.1243634   0.3744312  )
         9           Zn  tau(   9) = (   0.0023303   0.0023303   0.4988833  )
        10           Zn  tau(  10) = (   0.0021237   0.2474729   0.7503292  )
        11           Zn  tau(  11) = (   0.2474729   0.0021237   0.7503292  )
        12           Zn  tau(  12) = (   0.2487464   0.2487464   0.4981482  )
        13           S   tau(  13) = (   0.1250552   0.3747427   0.8743548  )
        14           S   tau(  14) = (   0.1253977   0.1253977   0.6242407  )
        15           S   tau(  15) = (   0.3752168   0.3752168   0.6229553  )
        16           S   tau(  16) = (   0.3747427   0.1250552   0.8743548  )
        17           Zn  tau(  17) = (   0.0023303   0.4988833   0.0023303  )
        18           Zn  tau(  18) = (   0.0021237   0.7503292   0.2474729  )
        19           Zn  tau(  19) = (   0.2487464   0.4981482   0.2487464  )
        20           Zn  tau(  20) = (   0.2474729   0.7503292   0.0021237  )
        21           S   tau(  21) = (   0.1250552   0.8743548   0.3747427  )
        22           S   tau(  22) = (   0.1253977   0.6242407   0.1253977  )
        23           S   tau(  23) = (   0.3747427   0.8743548   0.1250552  )
        24           S   tau(  24) = (   0.3752168   0.6229553   0.3752168  )
        25           Zn  tau(  25) = (   0.0035417   0.5001295   0.5001295  )
        26           Zn  tau(  26) = (   0.0035797   0.7494405   0.7494405  )
        27           Zn  tau(  27) = (   0.2479407   0.4994214   0.7489760  )
        28           Zn  tau(  28) = (   0.2479407   0.7489760   0.4994214  )
        29           S   tau(  29) = (   0.1250862   0.8749715   0.8749715  )
        30           S   tau(  30) = (   0.1257173   0.6246890   0.6246890  )
        31           S   tau(  31) = (   0.3736195   0.8763352   0.6223528  )
        32           S   tau(  32) = (   0.3736195   0.6223528   0.8763352  )
        33           Zn  tau(  33) = (   0.4988833   0.0023303   0.0023303  )
        34           Zn  tau(  34) = (   0.4981482   0.2487464   0.2487464  )
        35           Zn  tau(  35) = (   0.7503292   0.0021237   0.2474729  )
        36           Zn  tau(  36) = (   0.7503292   0.2474729   0.0021237  )
        37           S   tau(  37) = (   0.6229553   0.3752168   0.3752168  )
        38           S   tau(  38) = (   0.6242407   0.1253977   0.1253977  )
        39           S   tau(  39) = (   0.8743548   0.3747427   0.1250552  )
        40           S   tau(  40) = (   0.8743548   0.1250552   0.3747427  )
        41           Zn  tau(  41) = (   0.5001295   0.0035417   0.5001295  )
        42           Zn  tau(  42) = (   0.4994214   0.2479407   0.7489760  )
        43           Zn  tau(  43) = (   0.7494405   0.0035797   0.7494405  )
        44           Zn  tau(  44) = (   0.7489760   0.2479407   0.4994214  )
        45           S   tau(  45) = (   0.6223528   0.3736195   0.8763352  )
        46           S   tau(  46) = (   0.6246890   0.1257173   0.6246890  )
        47           S   tau(  47) = (   0.8763352   0.3736195   0.6223528  )
        48           S   tau(  48) = (   0.8749715   0.1250862   0.8749715  )
        49           Zn  tau(  49) = (   0.5001295   0.5001295   0.0035417  )
        50           Zn  tau(  50) = (   0.4994214   0.7489760   0.2479407  )
        51           Zn  tau(  51) = (   0.7489760   0.4994214   0.2479407  )
        52           Zn  tau(  52) = (   0.7494405   0.7494405   0.0035797  )
        53           S   tau(  53) = (   0.6223528   0.8763352   0.3736195  )
        54           S   tau(  54) = (   0.6246890   0.6246890   0.1257173  )
        55           S   tau(  55) = (   0.8749715   0.8749715   0.1250862  )
        56           S   tau(  56) = (   0.8763352   0.6223528   0.3736195  )
        57           Co  tau(  57) = (   0.4776964   0.4776964   0.4776964  )
        58           Zn  tau(  58) = (   0.4696620   0.7803811   0.7803811  )
        59           Zn  tau(  59) = (   0.7803811   0.4696620   0.7803811  )
        60           Zn  tau(  60) = (   0.7803811   0.7803811   0.4696620  )
        61           S   tau(  61) = (   0.6273684   0.8766568   0.8766568  )
        62           S   tau(  62) = (   0.8766568   0.8766568   0.6273684  )
        63           S   tau(  63) = (   0.8766568   0.6273684   0.8766568  )

   Crystallographic axes

     site n.     atom                  positions (cryst. coord.)
         1           Zn  tau(   1) = (  0.0002635  0.0002635  0.0002635  )
         2           Zn  tau(   2) = (  0.0000735  0.2492345  0.2492345  )
         3           Zn  tau(   3) = (  0.2492345  0.0000735  0.2492345  )
         4           Zn  tau(   4) = (  0.2492345  0.2492345  0.0000735  )
[...]
     atom  26 (R=0.086)  charge=  9.9938  magn=  0.0005
     atom  27 (R=0.086)  charge=  9.9925  magn=  0.0063
     atom  28 (R=0.086)  charge=  9.9925  magn=  0.0063
     atom  29 (R=0.085)  charge=  3.6183  magn=  0.0007
     atom  30 (R=0.085)  charge=  3.6265  magn=  0.0029
     atom  31 (R=0.085)  charge=  3.6206  magn=  0.0010
     atom  32 (R=0.085)  charge=  3.6206  magn=  0.0010
     atom  33 (R=0.086)  charge=  9.9924  magn=  0.0011
     atom  34 (R=0.086)  charge=  9.9948  magn=  0.0008
     atom  35 (R=0.086)  charge=  9.9937  magn=  0.0002
     atom  36 (R=0.086)  charge=  9.9937  magn=  0.0002
     atom  37 (R=0.085)  charge=  3.6228  magn=  0.0645
     atom  38 (R=0.085)  charge=  3.6253  magn=  0.0019
     atom  39 (R=0.085)  charge=  3.6169  magn=  0.0069
     atom  40 (R=0.085)  charge=  3.6169  magn=  0.0069
     atom  41 (R=0.086)  charge=  9.9951  magn=  0.0001
     atom  42 (R=0.086)  charge=  9.9925  magn=  0.0063
     atom  43 (R=0.086)  charge=  9.9938  magn=  0.0005
     atom  44 (R=0.086)  charge=  9.9925  magn=  0.0063
     atom  45 (R=0.085)  charge=  3.6206  magn=  0.0010
     atom  46 (R=0.085)  charge=  3.6265  magn=  0.0029
     atom  47 (R=0.085)  charge=  3.6206  magn=  0.0010
     atom  48 (R=0.085)  charge=  3.6183  magn=  0.0007
     atom  49 (R=0.086)  charge=  9.9951  magn=  0.0001
     atom  50 (R=0.086)  charge=  9.9925  magn=  0.0063
     atom  51 (R=0.086)  charge=  9.9925  magn=  0.0063
     atom  52 (R=0.086)  charge=  9.9938  magn=  0.0005
     atom  53 (R=0.085)  charge=  3.6206  magn=  0.0010
     atom  54 (R=0.085)  charge=  3.6265  magn=  0.0029
     atom  55 (R=0.085)  charge=  3.6183  magn=  0.0007
     atom  56 (R=0.085)  charge=  3.6206  magn=  0.0010
     atom  57 (R=0.085)  charge= 14.8918  magn=  2.1955
     atom  58 (R=0.086)  charge= 10.0111  magn=  0.0001
     atom  59 (R=0.086)  charge= 10.0111  magn=  0.0001
     atom  60 (R=0.086)  charge= 10.0111  magn=  0.0001
     atom  61 (R=0.085)  charge=  3.6201  magn=  0.0008
     atom  62 (R=0.085)  charge=  3.6201  magn=  0.0008
     atom  63 (R=0.085)  charge=  3.6201  magn=  0.0008

     End of self-consistent calculation

 ------ SPIN UP ------------

          k = 0.0000 0.0000 0.0000 (269825 PWs)   bands (ev):

   -90.6667 -54.1164 -54.1164 -53.5941  -7.6108  -7.1356  -7.1356  -7.1239
    -7.0951  -7.0951  -6.9789  -6.8729  -6.8729  -6.8697  -6.8039  -6.8014
    -6.8014  -6.7584  -6.7584  -6.7353  -6.7353  -6.7242  -6.6739  -6.6453
    -6.6453  -6.6424  -6.5766  -6.5133  -6.5133  -6.4112  -6.4033  -6.4033
    -6.3549  -6.3549  -6.3310  -1.0746  -1.0744  -1.0744  -1.0632  -1.0531
    -1.0531  -1.0486  -1.0486  -1.0326  -0.9577  -0.9416  -0.9416  -0.9190
    -0.9190  -0.9063  -0.8046  -0.8046  -0.7978  -0.7541  -0.7541  -0.7487
    -0.7312  -0.7312  -0.7147  -0.6916  -0.6910  -0.6910  -0.6833  -0.6755
    -0.6755  -0.6672  -0.6658  -0.6658  -0.6635  -0.6635  -0.6519  -0.6516
    -0.6492  -0.6492  -0.6456  -0.6304  -0.6302  -0.6302  -0.6280  -0.6252
    -0.6252  -0.6240  -0.6240  -0.6139  -0.6114  -0.6114  -0.6108  -0.6068
    -0.6068  -0.5991  -0.5947  -0.5947  -0.5844  -0.5784  -0.5784  -0.5689
    -0.5654  -0.5654  -0.5478  -0.5478  -0.5473  -0.5242  -0.5242  -0.5203
    -0.5203  -0.5167  -0.5111  -0.5111  -0.4976  -0.4943  -0.4881  -0.4881
    -0.4695  -0.4682  -0.4682  -0.4568  -0.4521  -0.4521  -0.4493  -0.4491
    -0.4491  -0.4172  -0.4172  -0.4169  -0.3857  -0.3532  -0.3532  -0.3402
    -0.3357  -0.3357  -0.3339  -0.3250  -0.3250  -0.3217  -0.3190  -0.3181
    -0.3155  -0.3155  -0.3100  -0.3100  -0.3065  -0.3065  -0.2929  -0.2917
    -0.2917  -0.2913  -0.2839  -0.2833  -0.2833  -0.2810  -0.2797  -0.2797
    -0.2639  -0.2639  -0.2561  -0.2545  -0.2526  -0.2526  -0.2514  -0.2514
    -0.2398  -0.2316  -0.2311  -0.2311  -0.2282  -0.2282  -0.2088  -0.2088
    -0.1961  -0.1788  -0.1766  -0.1766  -0.1738  -0.1559  -0.1559  -0.1529
    -0.1529  -0.1504  -0.1287  -0.1287  -0.0984  -0.0938  -0.0938  -0.0812
     0.0539   0.0539   0.0688   0.0767   0.0972   0.0972   0.1247   0.3412
     0.3467   0.3467   0.9014   0.9014   0.9239   0.9742   0.9742   0.9816
     1.0182   1.0182   1.0499   1.2921   1.2921   1.3792   1.4817   1.4817
     1.5127   1.5500   1.5701   1.5701   1.6872   1.6872   1.7569   2.0609
     2.0609   2.5682   2.5682   2.6310   2.6597   2.6628   2.6628   2.7320
     2.7358   2.7358   2.7552   2.8415   2.8484   2.8484   2.8806   2.8827
     2.8827   2.9325   2.9480   2.9480   2.9568   2.9700   2.9700   3.0078
     3.0339   3.0339   3.1291   3.1291   3.2049   3.2263   3.2263   3.2824
     3.2956   3.3574   3.3574   3.6825   3.6825   3.7906   3.8744   3.8744
     4.1351   4.1687   4.1687   4.1838   4.2239   4.2239   4.2581   4.3255
     4.3255   4.3705   4.3858   4.3858   4.4707   4.4866   4.4866   4.5266
     4.5757   4.5958   4.5958   4.6227   4.6227   4.6269   4.6313   4.6331
     4.6331   4.7481   4.7481   4.8963   4.8963   5.3532   5.4434   5.4434
     7.3332   7.9789   8.6693   8.6818   8.6818   8.7878   9.0402   9.0402
     9.3394   9.3394   9.3999   9.5615   9.6154   9.6154   9.6995   9.7054
     9.7054   9.8960   9.8960   9.9596  10.0151  10.0151  10.0408  10.0634
    10.0634  10.0882  10.1175  10.1499  10.1715  10.1715  10.1866  10.1866
    10.2977  10.3576  10.3576  10.6876  10.6876  10.8682  11.1493  11.1788
    11.1788  11.3191  11.3191  11.3353  11.3566  11.3615  11.3615  11.7917
    11.7917  11.8111  11.8203  11.8204  11.9111  11.9776  12.0311  12.0311

     occupation numbers
     1.0000   1.0000   1.0000   1.0000   1.0000   1.0000   1.0000   1.0000
     1.0000   1.0000   1.0000   1.0000   1.0000   1.0000   1.0000   1.0000
     1.0000   1.0000   1.0000   1.0000   1.0000   1.0000   1.0000   1.0000
     1.0000   1.0000   1.0000   1.0000   1.0000   1.0000   1.0000   1.0000
     1.0000   1.0000   1.0000   1.0000   1.0000   1.0000   1.0000   1.0000
     1.0000   1.0000   1.0000   1.0000   1.0000   1.0000   1.0000   1.0000
     1.0000   1.0000   1.0000   1.0000   1.0000   1.0000   1.0000   1.0000
     1.0000   1.0000   1.0000   1.0000   1.0000   1.0000   1.0000   1.0000
     1.0000   1.0000   1.0000   1.0000   1.0000   1.0000   1.0000   1.0000
     1.0000   1.0000   1.0000   1.0000   1.0000   1.0000   1.0000   1.0000
     1.0000   1.0000   1.0000   1.0000   1.0000   1.0000   1.0000   1.0000
     1.0000   1.0000   1.0000   1.0000   1.0000   1.0000   1.0000   1.0000
     1.0000   1.0000   1.0000   1.0000   1.0000   1.0000   1.0000   1.0000
     1.0000   1.0000   1.0000   1.0000   1.0000   1.0000   1.0000   1.0000
     1.0000   1.0000   1.0000   1.0000   1.0000   1.0000   1.0000   1.0000
     1.0000   1.0000   1.0000   1.0000   1.0000   1.0000   1.0000   1.0000
     1.0000   1.0000   1.0000   1.0000   1.0000   1.0000   1.0000   1.0000
     1.0000   1.0000   1.0000   1.0000   1.0000   1.0000   1.0000   1.0000
     1.0000   1.0000   1.0000   1.0000   1.0000   1.0000   1.0000   1.0000
     1.0000   1.0000   1.0000   1.0000   1.0000   1.0000   1.0000   1.0000
     1.0000   1.0000   1.0000   1.0000   1.0000   1.0000   1.0000   1.0000
     1.0000   1.0000   1.0000   1.0000   1.0000   1.0000   1.0000   1.0000
     1.0000   1.0000   1.0000   1.0000   1.0000   1.0000   1.0000   1.0000
     1.0000   1.0000   1.0000   1.0000   1.0000   1.0000   1.0000   1.0000
     1.0000   1.0000   1.0000   1.0000   1.0000   1.0000   1.0000   1.0000
     1.0000   1.0000   1.0000   1.0000   1.0000   1.0000   1.0000   1.0000
     1.0000   1.0000   1.0000   1.0000   1.0000   1.0000   1.0000   1.0000
     1.0000   1.0000   1.0000   1.0000   1.0000   1.0000   1.0000   1.0000
     1.0000   1.0000   1.0000   1.0000   1.0000   1.0000   1.0000   1.0000
     1.0000   1.0000   1.0000   1.0000   1.0000   1.0000   1.0000   1.0000
     1.0000   1.0000   1.0000   1.0000   1.0000   1.0000   1.0000   1.0000
     1.0000   1.0000   1.0000   1.0000   1.0000   1.0000   1.0000   1.0000
     1.0000   1.0000   1.0000   1.0000   1.0000   1.0000   1.0000   1.0000
     1.0000   1.0000   1.0000   1.0000   1.0000   1.0000   1.0000   1.0000
     1.0000   1.0000   1.0000   1.0000   1.0000   1.0000   1.0000   1.0000
     1.0000   1.0000   1.0000   1.0000   1.0000   1.0000   1.0000   1.0000
     0.0000   0.0000   0.0000   0.0000   0.0000   0.0000   0.0000   0.0000
     0.0000   0.0000   0.0000   0.0000   0.0000   0.0000   0.0000   0.0000
     0.0000   0.0000   0.0000   0.0000   0.0000   0.0000   0.0000   0.0000
     0.0000   0.0000   0.0000   0.0000   0.0000   0.0000   0.0000   0.0000
     0.0000   0.0000   0.0000   0.0000   0.0000   0.0000   0.0000   0.0000
     0.0000   0.0000   0.0000   0.0000   0.0000   0.0000   0.0000   0.0000
     0.0000   0.0000   0.0000   0.0000   0.0000   0.0000   0.0000   0.0000

[...]

          k =-0.5000-0.5000-0.5000 (269968 PWs)   bands (ev):

[...]

 ------ SPIN DOWN ----------

[...]

          k =-0.2500 0.0000 0.2500 (269929 PWs)   bands (ev):

[...]

          k = 0.2500-0.2500-0.5000 (269988 PWs)   bands (ev):

   -87.9909 -51.3598 -51.3598 -51.2709  -7.4050  -7.3781  -7.1861  -7.1594
    -7.1367  -7.1011  -6.9927  -6.9225  -6.8297  -6.8091  -6.7814  -6.7535
    -6.7441  -6.7059  -6.6705  -6.6617  -6.6349  -6.6056  -6.6034  -6.5923
    -6.5734  -6.5489  -6.5431  -6.5174  -6.4875  -6.4748  -6.4570  -6.4414
    -6.4227  -6.4080  -6.3786  -1.0719  -1.0703  -1.0692  -1.0583  -1.0538
    -1.0514  -1.0446  -1.0411  -1.0380  -0.9407  -0.9360  -0.9320  -0.9246
    -0.9207  -0.9174  -0.7719  -0.7661  -0.7506  -0.7431  -0.7375  -0.7305
    -0.7182  -0.7090  -0.7050  -0.7032  -0.6990  -0.6959  -0.6938  -0.6870
    -0.6859  -0.6797  -0.6774  -0.6756  -0.6702  -0.6667  -0.6653  -0.6628
    -0.6584  -0.6546  -0.6497  -0.6493  -0.6431  -0.6394  -0.6372  -0.6358
    -0.6301  -0.6298  -0.6204  -0.6181  -0.6153  -0.6139  -0.6105  -0.6057
    -0.6028  -0.5921  -0.5892  -0.5826  -0.5810  -0.5780  -0.5748  -0.5703
    -0.5662  -0.5644  -0.5577  -0.5510  -0.5459  -0.5423  -0.5362  -0.5303
    -0.5189  -0.5176  -0.5168  -0.5084  -0.5025  -0.4997  -0.4965  -0.4944
    -0.4928  -0.4810  -0.4729  -0.4651  -0.4648  -0.4504  -0.4286  -0.4268
    -0.4112  -0.4032  -0.4020  -0.3967  -0.3788  -0.3738  -0.3676  -0.3623
    -0.3582  -0.3516  -0.3451  -0.3402  -0.3368  -0.3294  -0.3188  -0.3095
    -0.3069  -0.3047  -0.2995  -0.2982  -0.2943  -0.2921  -0.2890  -0.2877
    -0.2853  -0.2815  -0.2778  -0.2763  -0.2692  -0.2680  -0.2665  -0.2561
    -0.2543  -0.2495  -0.2475  -0.2439  -0.2422  -0.2407  -0.2360  -0.2343
    -0.2292  -0.2270  -0.2224  -0.2178  -0.2140  -0.2109  -0.2032  -0.2011
    -0.1925  -0.1751  -0.1742  -0.1657  -0.1627  -0.1543  -0.1504  -0.1492
    -0.1390  -0.1367  -0.1219  -0.1095  -0.0960  -0.0702  -0.0518  -0.0450
    -0.0296  -0.0141  -0.0022   0.0005   0.0326   0.0505   0.5330   0.6094
     0.7385   0.7972   0.8312   0.8673   0.9057   0.9340   0.9386   0.9738
     1.0240   1.0473   1.0653   1.0873   1.1087   1.1417   1.2061   1.4238
     1.4829   1.4949   1.5480   1.6159   1.6808   1.7013   1.8224   1.8885
     2.4582   2.5073   2.5377   2.5633   2.5909   2.6117   2.6255   2.6793
     2.7355   2.7819   2.7884   2.8397   2.8897   2.9674   3.0002   3.1009
     3.1112   3.1969   3.2825   3.3085   3.3667   3.4158   3.4311   3.4631
     3.4927   3.5067   3.5270   3.5484   3.5722   3.5828   3.6246   3.6503
     3.6911   3.7244   3.7265   3.7344   3.7564   3.7682   3.7902   3.8145
     3.8491   3.9632   3.9919   4.0068   4.0377   4.0523   4.1066   4.1345
     4.1967   4.2190   4.2554   4.3079   4.3353   4.3464   4.3972   4.4266
     4.5003   4.5484   4.7390   4.7938   4.8110   4.8302   4.8898   4.9566
     5.0147   5.0386   5.0603   5.4061   5.4151   6.2936   6.4983   6.5272
     8.3106   8.6018   8.6868   8.9359   9.0431   9.1249   9.2244   9.2654
     9.3685   9.4086   9.4189   9.4808   9.5491   9.6212   9.6389   9.6591
     9.6957   9.7721   9.7925   9.8278   9.8358   9.9053   9.9393   9.9688
     9.9813  10.0616  10.1214  10.1565  10.1994  10.2396  10.3274  10.3902
    10.4226  10.4830  10.6179  10.6529  10.6802  10.7714  10.8470  10.9154
    10.9625  11.0426  11.0842  11.1846  11.2481  11.3688  11.4015  11.4328
    11.5055  11.5160  11.5520  11.5920  11.6303  11.6399  11.6732  11.6953

     occupation numbers
     1.0000   1.0000   1.0000   1.0000   1.0000   1.0000   1.0000   1.0000
     1.0000   1.0000   1.0000   1.0000   1.0000   1.0000   1.0000   1.0000
     1.0000   1.0000   1.0000   1.0000   1.0000   1.0000   1.0000   1.0000
     1.0000   1.0000   1.0000   1.0000   1.0000   1.0000   1.0000   1.0000
     1.0000   1.0000   1.0000   1.0000   1.0000   1.0000   1.0000   1.0000
     1.0000   1.0000   1.0000   1.0000   1.0000   1.0000   1.0000   1.0000
     1.0000   1.0000   1.0000   1.0000   1.0000   1.0000   1.0000   1.0000
     1.0000   1.0000   1.0000   1.0000   1.0000   1.0000   1.0000   1.0000
     1.0000   1.0000   1.0000   1.0000   1.0000   1.0000   1.0000   1.0000
     1.0000   1.0000   1.0000   1.0000   1.0000   1.0000   1.0000   1.0000
     1.0000   1.0000   1.0000   1.0000   1.0000   1.0000   1.0000   1.0000
     1.0000   1.0000   1.0000   1.0000   1.0000   1.0000   1.0000   1.0000
     1.0000   1.0000   1.0000   1.0000   1.0000   1.0000   1.0000   1.0000
     1.0000   1.0000   1.0000   1.0000   1.0000   1.0000   1.0000   1.0000
     1.0000   1.0000   1.0000   1.0000   1.0000   1.0000   1.0000   1.0000
     1.0000   1.0000   1.0000   1.0000   1.0000   1.0000   1.0000   1.0000
     1.0000   1.0000   1.0000   1.0000   1.0000   1.0000   1.0000   1.0000
     1.0000   1.0000   1.0000   1.0000   1.0000   1.0000   1.0000   1.0000
     1.0000   1.0000   1.0000   1.0000   1.0000   1.0000   1.0000   1.0000
     1.0000   1.0000   1.0000   1.0000   1.0000   1.0000   1.0000   1.0000
     1.0000   1.0000   1.0000   1.0000   1.0000   1.0000   1.0000   1.0000
     1.0000   1.0000   1.0000   1.0000   1.0000   1.0000   1.0000   1.0000
     1.0000   1.0000   1.0000   1.0000   1.0000   1.0000   1.0000   1.0000
     1.0000   1.0000   1.0000   1.0000   1.0000   1.0000   1.0000   1.0000
     1.0000   1.0000   1.0000   1.0000   1.0000   1.0000   1.0000   1.0000
     1.0000   1.0000   1.0000   1.0000   1.0000   1.0000   1.0000   1.0000
     1.0000   1.0000   1.0000   1.0000   1.0000   1.0000   1.0000   1.0000
     1.0000   1.0000   1.0000   1.0000   1.0000   1.0000   1.0000   1.0000
     1.0000   1.0000   1.0000   1.0000   1.0000   1.0000   1.0000   1.0000
     1.0000   1.0000   1.0000   1.0000   1.0000   1.0000   1.0000   1.0000
     1.0000   1.0000   1.0000   1.0000   1.0000   1.0000   1.0000   1.0000
     1.0000   1.0000   1.0000   1.0000   1.0000   1.0000   1.0000   1.0000
     1.0000   1.0000   1.0000   1.0000   1.0000   1.0000   1.0000   1.0000
     1.0000   1.0000   1.0000   1.0000   1.0000   1.0000   1.0000   1.0000
     1.0000   1.0000   1.0000   1.0000   1.0000   1.0000   1.0000   1.0000
     1.0000   1.0000   1.0000   1.0000   1.0000   0.0000   0.0000   0.0000
     0.0000   0.0000   0.0000   0.0000   0.0000   0.0000   0.0000   0.0000
     0.0000   0.0000   0.0000   0.0000   0.0000   0.0000   0.0000   0.0000
     0.0000   0.0000   0.0000   0.0000   0.0000   0.0000   0.0000   0.0000
     0.0000   0.0000   0.0000   0.0000   0.0000   0.0000   0.0000   0.0000
     0.0000   0.0000   0.0000   0.0000   0.0000   0.0000   0.0000   0.0000
     0.0000   0.0000   0.0000   0.0000   0.0000   0.0000   0.0000   0.0000
     0.0000   0.0000   0.0000   0.0000   0.0000   0.0000   0.0000   0.0000

     the Fermi energy is     5.7417 ev

!    total energy              =   -9991.70577356 Ry
     total all-electron energy =   -138897.326564 Ry
     estimated scf accuracy    <          2.8E-09 Ry
     smearing contrib. (-TS)   =      -0.00000000 Ry
     internal energy E=F+TS    =   -9991.70577356 Ry

     The total energy is F=E-TS. E is the sum of the following terms:
     one-electron contribution =   -3030.08887768 Ry
     hartree contribution      =    2080.84852664 Ry
     xc contribution           =   -1651.64939378 Ry
     ewald contribution        =   -2915.12729194 Ry
     one-center paw contrib.   =   -4475.68873681 Ry
      -> PAW hartree energy AE =     123.06851573 Ry
      -> PAW hartree energy PS =    -122.42600869 Ry
      -> PAW xc energy AE      =    -143.19262741 Ry
      -> PAW xc energy PS      =      47.13158957 Ry
      -> total E_H with PAW    =    2081.49103369 Ry
      -> total E_XC with PAW   =   -1747.71043162 Ry

     total magnetization       =     3.00 Bohr mag/cell
     absolute magnetization    =     3.04 Bohr mag/cell

     convergence has been achieved in  18 iterations

     Writing all to output data dir ./out/Co_qp2.save/

     General routines

     Parallel routines

     PAW routines

   This run was terminated on:   4: 2:42   7Jul2024

   JOB DONE.